 # Version information for this restart file 
 # current date 2022-05-24 22:50:36.706
 # current working dir /home/nick/Documents/gitlab/pymatgen/cp2k_simulations/ar108/output
 # Program compiled at                              Sun Mar 22 16:45:27 UTC 2020
 # Program compiled on                                           lcy01-amd64-017
 # Program compiled for                                    Linux-x86_64-gfortran
 # Source code revision number                                         svn:18464
 &GLOBAL
   PROJECT_NAME ar108
   RUN_TYPE  MD
 &END GLOBAL
 &MOTION
   &MD
     ENSEMBLE  NVT
     STEPS  100
     TIMESTEP     9.9999999999999989E-01
     STEP_START_VAL  80
     TIME_START_VAL     8.0000000000000057E+01
     ECONS_START_VAL    -2.2736367447489101E+03
     TEMPERATURE     1.0000000000000001E+02
     &THERMOSTAT
       REGION  MASSIVE
       &NOSE
         TIMECON     9.9999999999999989E+02
         &COORD
               8.1188339515631952E-02   -4.4249669035819325E-02   -1.2943218123558801E-02    2.4486420448007556E-02 \
              -2.1160072178539605E-02   -2.3615862531293941E-02   -1.5368672559146880E-02   -3.4411068189524135E-02   -4.7745619925574891E-02 \
               9.7189097652315690E-02   -6.5450189855459390E-02    3.5912218857890491E-02    9.1537680817079040E-02   -3.2960625469508828E-02 \
               1.3178758239751094E-02    3.0779845852905632E-02   -3.3863179986231819E-02    6.5702250095062212E-02    1.1887814112234496E-02 \
              -3.4021452446497014E-02    4.1023054756037507E-02   -7.6124834671663130E-02   -5.5364924732125669E-02   -3.5513524723269095E-02 \
              -5.4462832352727808E-02    4.6820108751272627E-02   -4.4331712354506066E-02   -9.8838693084699319E-03    9.7002739156805781E-02 \
              -2.7190656349193248E-02   -1.8694073040793860E-02    7.9143154197822627E-02   -2.9811562740121811E-02    3.3443504480969402E-02 \
              -1.6227746126371245E-02    5.9339522773862799E-02   -5.7399611133597073E-04    1.6808423223567369E-02   -5.8117885973718392E-02 \
              -2.6612582689878574E-02   -1.2096096373146025E-02    4.3190357061137524E-02   -3.0013167561558649E-03    8.4353112050120166E-02 \
               5.0259644204030084E-03    9.0393572655697640E-02    3.1278828705948523E-02    1.4205901099150974E-02   -4.0320577130497038E-03 \
              -6.9805909203433256E-02    5.5406896679180744E-02   -8.2671062131069763E-03    1.8210276196472020E-02    1.7574998269960878E-02 \
               3.2825430407528645E-02    5.9054522093776063E-05   -1.0692043240813319E-02   -3.3343439631791809E-02    4.1596499262150415E-02 \
               2.3615941697282705E-02    2.6249287815234040E-02   -6.5942880859391389E-03    9.8886822728423140E-02   -5.6417700013242797E-02 \
               8.9012230601635378E-04   -2.1307346627158826E-02    6.9195537315307656E-02    2.1619179430639288E-03   -2.8101932530652064E-02 \
              -1.3405719981795974E-01   -4.9841606479974149E-03    6.7545170220170009E-03   -4.8133452515050447E-02    3.8716877941310825E-02 \
              -3.0611913552677929E-02    6.7680483942366657E-02    4.7511844602301213E-02    6.3029383829849808E-02    2.5359120644756279E-02 \
              -7.3567076638960838E-02    2.4932894914435615E-02    2.1606087325193250E-02    1.4850786214109493E-03    4.1137400687930593E-04 \
              -8.1607894448195564E-02   -9.2244661968654083E-03    2.8344993059742630E-02   -5.3191477628530361E-02    1.8050065791321353E-03 \
              -1.9565983047178326E-02   -4.7367208862257072E-03    5.8468408194806934E-02    4.5284958963708988E-02   -3.4577152136534589E-02 \
               2.6870771114600182E-02    4.8047441022560131E-02    9.3949810494630623E-02    5.5646957584503005E-02    5.8431137004150105E-02 \
               1.4954550788686079E-02   -4.7585690537967087E-02   -3.5173616196695415E-02    9.0751505191294768E-02    3.7130179140486420E-02 \
              -3.2715361888850179E-02   -6.3046319388969485E-02   -5.2345568031323016E-02    7.9637968204138085E-03   -8.1893072285000118E-02 \
               4.1845565646899521E-02   -2.2445616023928985E-02   -2.3835904406815229E-02    8.3105116139790505E-02    2.7788979919773239E-02 \
               8.2494820616042677E-04   -1.6378100521990305E-02   -3.3266144015912341E-03   -7.1500588389990655E-02   -1.9830686796435178E-03 \
               5.2602122368346632E-03    9.5612357545175504E-03    4.5350602895408657E-03   -7.8385697549713307E-02   -1.2112141124912769E-02 \
              -5.4100132650249523E-02   -2.6841386784991126E-02   -2.8984900851022479E-02   -2.4415668889307428E-02   -2.0773086383031474E-02 \
               1.1040107911548136E-02   -3.2354212226430992E-02   -5.4947413847226062E-03   -7.8925092434240784E-02   -7.8669306896777813E-02 \
              -2.1407554403561611E-03   -1.5122545187903682E-02   -2.7530668322341276E-02   -4.8309094645261508E-02    2.8641437318233116E-02 \
               1.1269635057419769E-02   -1.0018885300631040E-01    1.9865693158678463E-02    6.8752328591002623E-02    5.2662947918182337E-04 \
              -7.5928187552145268E-02   -1.1755600656649521E-02   -1.9810750740399348E-02    2.9838587182496039E-02   -2.5381604018259767E-02 \
               1.4196175339536786E-02    2.7034260678690147E-02   -4.5656688547230009E-03   -4.0444035539845312E-03    5.5575755108515597E-02 \
              -4.8328538988686796E-02    5.4702779643071242E-02    2.2003060181285970E-02    9.6550950778570718E-02    5.1683160790297347E-02 \
               8.2543202447115315E-04    3.2226497728773166E-03    9.0223724353644605E-03   -7.5498601398873738E-02   -1.3677837529758966E-02 \
              -8.3562721201542553E-02   -4.3503999935660627E-02   -4.7090100529640071E-02   -1.0884783061135028E-02    5.7566170894877970E-02 \
              -1.0742507675415819E-02   -2.7903165099167317E-02    8.7558345355929601E-02   -2.0268948601645354E-02    6.2950849391226124E-02 \
               1.6082367123168326E-02   -7.9391622426978788E-03    6.4905044259562131E-02    3.4663576970149247E-02   -2.4031346665357268E-02 \
              -1.9529448950596957E-02   -1.8707824126756697E-02    3.0442953614352328E-02    5.0815186696824333E-02    2.3285670641007318E-02 \
              -5.4417557094486084E-02    5.9838658301803434E-03   -1.1417310133191359E-02    6.3158092312427449E-03   -2.0018629586546051E-02 \
               4.6889781681596465E-02   -3.9449979738696149E-02    3.6925504842209099E-02   -3.7450951086614830E-02    4.4298103300017599E-02 \
              -6.6944201716188104E-02    1.1162002944170118E-02   -4.1590784743126247E-02    6.2764289042823176E-02   -2.9876851664909668E-02 \
               3.3595446188187002E-02    5.9042659762405754E-02    6.1269642377859292E-02    3.2729615043032720E-02    7.5977538657406307E-02 \
               2.2668455702784907E-02    9.2213829898034946E-03    6.7302595793975782E-03    4.5225278207459793E-02    1.3746128265263099E-02 \
              -1.1443299187017322E-01    3.7146970127436639E-02    4.1358069446250541E-02    1.0662240965622241E-01   -6.8427528861108285E-03 \
              -4.7782335137525826E-02   -2.5956242791925467E-02    3.5596149937798034E-02   -8.5426930834204981E-02    3.3276701384186209E-02 \
              -3.2790068852495302E-02    6.7594261478102644E-02   -3.8411777932149352E-02   -4.4412964211747029E-02   -3.1198856980474077E-02 \
              -2.4219740733769344E-02   -4.0143333601345692E-02   -9.1048436514643061E-02   -1.6047450451236296E-02   -3.1256056991823454E-02 \
              -6.9929936422067712E-02    8.8786129066117228E-02   -2.8736449016990764E-02    1.9799591207719579E-03   -7.2415814664000808E-02 \
               1.5343997140786221E-02   -1.7791037476569207E-02   -5.8772533609722726E-02    5.6581459110814601E-03    9.7142225603347454E-02 \
              -2.3901525473883200E-02   -2.4434862437684744E-02    3.7214338558044985E-02    9.1748661231882314E-02   -9.1255377124700207E-02 \
               2.1808625628766811E-02   -4.9917774743267515E-02   -8.3443222499264107E-03   -8.6837464473923792E-02   -5.3279002161103414E-04 \
              -2.8314795759440802E-02    5.2958269360820376E-02    4.0214882980016908E-02   -3.5879232337221838E-02   -2.1421981772183941E-02 \
              -2.7536876873360493E-02   -1.4769961855168403E-02    2.0435424770767433E-02    4.4521366942833290E-02   -7.8767007364918366E-03 \
               7.3650017636323159E-02   -7.1290641922956378E-03    3.8818923305039270E-02   -3.9387339259031116E-02    2.7531685706358111E-02 \
               7.6346032221201177E-02    5.5562072098725365E-02   -5.1346805038347341E-02   -1.1002832244038779E-02    2.5586219148758627E-02 \
              -1.4534542764849756E-02   -3.4850897535729522E-02   -3.4265212060343685E-03   -5.3239478024088842E-02    2.0612729857976009E-02 \
               5.2954920839071882E-03    1.1263666457277067E-03   -3.8141594497542396E-03   -1.1874479640632076E-03   -9.6774494371241859E-02 \
              -1.8169767505135926E-02    3.0037843394173896E-02   -4.7517368707325647E-02   -5.2888056233796180E-02    8.7957147242033341E-03 \
               6.1599038459976482E-02    1.4880427252293561E-02    8.9120725139107283E-03   -1.2828662011537283E-02    3.4982501475360313E-02 \
               2.2238875526249067E-02   -7.2969127962392785E-02    2.1068703735454931E-02    3.2522311702541565E-02   -4.4116999485950062E-02 \
              -1.9834562540085522E-03    2.6564708709935537E-02   -2.1263714352920014E-03   -1.3209361487428570E-03   -4.7513874788100006E-02 \
               7.8853245282944680E-03   -5.5549822210716714E-02   -4.2491849077026182E-02   -2.2274034892349349E-02    5.2876521397401968E-02 \
              -3.9679617309422190E-02   -1.9857947410246761E-02    9.7654306232148012E-03   -5.5940077686099848E-02   -1.8871466757534577E-02 \
               1.8640365708840548E-02   -2.0090777893054169E-02   -6.7716106370261002E-03    1.2945337925178865E-01    5.1534173723010057E-02 \
               7.1317127966484962E-04   -7.8700528697363062E-02    2.4578528465436886E-02    6.8433257905777506E-02    5.0722758931317107E-02 \
              -9.6944531611463616E-02    6.9036094210390184E-02   -7.3852911647603076E-02    4.8992144491811343E-02   -9.0109935032686248E-03 \
              -6.4747642377686347E-03   -6.2662386981358182E-04    3.5714917720013444E-02    5.9109997973217504E-02   -2.2381017444244946E-02 \
               5.2245944483762755E-02    5.5324426371047786E-02   -6.5608900674296478E-02   -2.4151654946933897E-02    6.9415704106673332E-02 \
               6.4474886861718525E-02    3.6839883071640191E-02   -1.2950871797266775E-01   -2.6601807919214772E-02   -3.0265688333153250E-03 \
               1.5950349690317063E-02   -1.2967099850546719E-02    4.4423655387423801E-02   -1.0466965087292734E-01    5.8842767984408510E-02 \
              -1.0477019538946465E-01    3.6759949063093510E-02   -1.1146142944819245E-02   -7.0905275311611976E-02   -1.4501756687645240E-03 \
              -5.2413236435830943E-02   -1.7579417618012787E-02    3.1028411788579000E-02    3.8332385879290401E-02    1.0474413139042044E-02 \
              -4.0505709569106912E-03    3.1842811961437158E-02   -8.3126017657309856E-02    7.0657550488187018E-02   -4.2952791431232609E-02 \
               1.3819432855451914E-02    2.8200347410373288E-02   -2.6500848080719366E-02    2.8107121527740538E-02   -7.9274163079360114E-03 \
              -4.9445706280255582E-02    1.9707846433054836E-02    1.5329782706268672E-02   -4.9274094039478106E-02   -1.0288419970704446E-02 \
               2.0222240446384383E-02    8.6236926407780648E-02   -3.1952635916362757E-02   -3.9042230424961417E-02    1.1255215077735910E-02 \
              -3.1543056410928354E-02    5.3964810664329850E-02   -2.3136937131729606E-02    5.4505059017635110E-02   -4.9403324177403209E-02 \
              -7.1785075756182107E-02   -5.3365430519989585E-02    3.3149647239512317E-02   -1.6675787229802126E-02    7.6605530625442151E-03 \
               5.7653020776994184E-02   -7.3201721561634098E-02   -5.0498626733485048E-02   -2.6549921252046790E-02   -5.6428515353028716E-02 \
               3.2307518574026278E-02   -4.1683953906824174E-02    6.7501943643076073E-02    7.4966618840872140E-03   -8.0024322117658881E-03 \
              -1.9505745829193052E-02   -3.5332390692311096E-03    8.9886170885662406E-02    5.3830910531320136E-02   -5.2304782598228905E-02 \
              -1.6322672627735707E-02    4.6097891510948855E-02    4.4621550385614668E-02   -3.2681227106122518E-03    7.4844584466900784E-03 \
              -1.1381785631555279E-02   -4.6992949365361816E-02   -2.6460661475410527E-02    4.3386787677787961E-02   -1.1430690155716289E-02 \
               2.8462580118553092E-02   -3.8815886400102939E-03    2.3843672426342565E-02    7.1765586937942591E-02    7.4745823502663893E-03 \
              -8.3928426446245284E-03    9.6868167003475343E-03    1.0864227156909143E-02    7.5958827984697649E-02    3.2991551773183796E-02 \
               3.9096942536859046E-02    2.6720744107414512E-02    7.7920453888901207E-03    9.8594534309786278E-02   -1.0099911879690011E-02 \
               1.9087111842473088E-02   -2.4871421361297427E-02    7.7624217315652277E-02    2.6391036293198632E-02   -1.4877374118421862E-04 \
               3.6957950104082454E-02   -1.0266870626330494E-02   -5.5772385408073978E-02   -7.0836367053757093E-02   -2.5554009270737321E-02 \
              -3.5085925831270320E-02   -4.4291164960105503E-02    2.6836721344938503E-03   -2.0197516542684205E-02    1.0666613822442536E-03 \
               4.9137518709846542E-03    1.4348500002787415E-02   -7.0883458478525785E-02   -3.6991170439051493E-02   -3.6223319925005056E-02 \
               2.6112741266797738E-02   -2.1282186484034779E-02    4.5331952363322471E-02    3.8834651400790131E-03   -3.2782074331733441E-02 \
              -1.0022004242092940E-02    5.4028232181627320E-02    7.9161340080533160E-02   -9.9186234096132503E-02    4.6415290490595618E-02 \
               3.1546871429736424E-02    7.9938034870202165E-03   -2.7444339868137171E-02   -4.9322223573941969E-02   -1.4042375697765780E-02 \
              -6.1053353868113426E-02   -6.8740552183284051E-02   -2.4925751102081430E-02   -2.8750600965675784E-02   -5.7268902283739792E-02 \
               8.1530745300757129E-02   -2.6072806669702311E-02   -9.7520451241382478E-02    6.6158133502368627E-02   -5.9318167611929003E-04 \
               6.6247597023830124E-02   -3.8289589380642489E-02   -3.5534164536956299E-02   -6.6253363706344451E-02   -1.5539474314474691E-03 \
              -6.4143143084687416E-04   -1.2488984994971315E-01   -9.0889658012111071E-03    2.3219758578402347E-02   -5.0858449915198466E-02 \
               6.8712230572468723E-03    1.1257270042955680E-01    6.7708300287461897E-03    3.9151448775709703E-02   -2.9649202465500835E-02 \
               4.0076895895445989E-02    5.2700285337886468E-02    6.3504059028196410E-03    3.4962405267877771E-02   -4.0514764658709283E-02 \
              -4.9187444843432036E-02    4.4495037760497069E-02    2.4864849866124670E-02   -6.5383760707721436E-02   -8.8918853294017181E-03 \
              -5.3686820537108160E-02   -6.3752557285189346E-02   -5.4097533752955541E-02   -6.9329865544265026E-02    5.5049367604292659E-02 \
              -1.3722827666273968E-03   -4.8708720584320605E-03    5.4259917711010795E-03   -8.1852206585662345E-03    6.6998056834274376E-03 \
              -1.9141072614343377E-02    5.7279550774086384E-03   -5.8152745527055724E-02   -5.8746704670102089E-02   -3.5206477489987301E-02 \
              -2.2535413045388347E-03    1.8344360535457412E-02   -2.8378072840781522E-02   -5.5642291500420257E-02   -7.1973759099617465E-02 \
               3.0248541478747467E-03    5.6411454722709441E-02   -2.4571744280914593E-02    1.3093183857718457E-01    8.6111263879437095E-04 \
              -6.9308878041616706E-03   -2.4318041149323441E-02    4.5742052099121272E-02    6.0456547822530939E-02    4.3338869169534396E-02 \
              -5.1111192710971566E-02   -5.1890710673038465E-02   -7.8170581803590836E-02   -5.4599142366279930E-03    9.4006669617888020E-02 \
               1.5376204915798017E-02    6.1358348311866102E-02    4.2444626803993125E-03    4.8073524887541901E-02    1.9644144311995503E-03 \
              -3.8571893457730849E-02    3.9249594100205787E-02   -5.1667953303084165E-02   -1.8618310309954710E-02    3.6047792589713336E-02 \
               1.1554536269036603E-02   -3.5487635304682366E-02    3.3844283418397396E-02   -3.3804273788335941E-02    5.2701321529445087E-02 \
              -8.2699338909387825E-04   -1.7130936680856333E-02    1.3378703905239042E-02    3.5214673270131270E-03   -1.8038263128319080E-02 \
              -8.3219263032788565E-02   -3.5033616226992539E-02   -2.2803037777306384E-02    2.1900675014691666E-02    1.8828738343998258E-02 \
              -2.5536322002737560E-02   -4.4193050188021533E-02    5.6361060191021835E-02    1.6845625967725042E-02    1.8827480854665954E-01 \
              -3.1679382934604906E-02   -1.1115842688532293E-02    6.4903031967514069E-02   -3.2767541010635608E-02    6.1671637237865076E-02 \
               5.3541747453487484E-02    2.8260408369547674E-02    1.4909347482573297E-02   -1.2489646036339641E-02    9.7766647819548941E-03 \
               5.1079846446158733E-02    5.8959173313143355E-02    6.7407306729644734E-02   -5.8856502005959772E-02   -1.6127513670302938E-02 \
               5.0781084367958626E-02    4.7965981473906545E-04   -5.1146617473721880E-02    9.0785125611233565E-03    2.4338874286270577E-02 \
               2.1256688939794616E-02    3.8993685088430138E-02   -1.1472496912081311E-01   -1.0771852389840141E-01    1.7245059130530350E-02 \
               7.8304543163845969E-02   -1.8557306302134553E-02    3.7035196145501190E-04   -6.4196398428031015E-02    8.2239593279573905E-02 \
               2.5907380580604430E-02   -3.7399150960740056E-02   -1.6038015301603553E-03   -1.0455975981074522E-01    7.6782359304899447E-02 \
               3.0401320040778824E-02   -3.3255547420822135E-03    1.1026894621267744E-01   -1.7677117470552100E-02    2.1783336425629084E-02 \
              -3.9489632273753600E-02    6.5452748544903546E-03   -7.9266843266682055E-02   -5.6023454676578460E-02    5.2565638024534227E-02 \
              -1.9442597016397944E-02    7.9329060879187091E-02   -5.9704939177067463E-02    1.4365652706606086E-03   -1.3701068013976725E-01 \
              -1.1607226200986923E-01    2.2461742619527294E-02   -8.4309633333877355E-03   -7.3902607862575062E-02   -6.5633915823552103E-02 \
               4.8743399468426672E-02    8.6024893923590598E-03   -8.8376294275110304E-02    9.4473952854325971E-02    2.5160431220688563E-03 \
              -3.5997423288568552E-02    1.3347435777722540E-02   -4.9315462220657063E-03    6.0404283878176285E-02    4.0610623979244961E-02 \
              -6.9578369643845464E-02   -8.9808172798017723E-03   -5.0839772298857444E-02    8.2374796785513141E-02    2.3470279964283899E-02 \
              -5.4356743942881397E-02   -6.9268016472732438E-02    5.7686867964550720E-02    4.1251127359234009E-02   -1.1532360472944854E-02 \
              -3.2189986771412819E-02   -7.5416928934719296E-02   -4.1695804269038184E-02    7.0724603688111579E-03   -2.0284479430913858E-02 \
              -1.2616131256353528E-02   -4.3505292789511880E-02    2.3335471642555988E-02    4.6442707775088219E-03    4.0120752547743915E-02 \
              -3.0242408719838434E-02    4.5378049395311823E-03   -4.6783996473563523E-02    4.3786983437151684E-02   -3.9246449589582372E-02 \
               6.1420807679694572E-02    1.2942563506514872E-02    2.3909831755538305E-02    3.1548110178985914E-02   -9.9083743784493961E-03 \
              -6.5180171018417582E-02    6.4422414631533309E-02    8.5002248516765702E-03   -1.3083678705286728E-02    1.4324248460010198E-02 \
              -3.1291731941665082E-02    6.1104246231187390E-02   -1.7804328957001528E-02   -6.9117028143451942E-02   -4.1030769342222051E-02 \
               3.3834470902295078E-03   -3.4561825466161544E-02    7.6592581972831170E-02    8.1877835915909070E-03    3.5554941861601026E-02 \
              -3.6912270224431401E-02    2.2844753512546431E-02    6.3773102186142530E-02    6.5637642472854679E-03   -1.6024801462110033E-03 \
               3.2626335689958180E-02    3.8263618596296130E-02   -3.4147459439957818E-02    3.7057235164350028E-02   -1.2483337045528055E-03 \
               2.1543419262689819E-02   -4.3632286228098643E-02   -2.4227958847836881E-02    1.2444839138870347E-02    2.0529142784997362E-02 \
              -1.0418194499610051E-01    4.3179731434193911E-03    7.3365181667976401E-03    9.1767868835222546E-02   -2.3815461647089760E-02 \
              -2.7942396031514834E-02   -2.7759653237925924E-02   -3.0172210674631716E-02   -4.2988468859482071E-02   -1.3935296251200716E-02 \
              -3.3550742346197038E-02   -1.0216821773503078E-02   -1.8070243531336450E-02    3.1287253883017459E-02   -7.6051696959131545E-03 \
               1.5648563180541614E-02    2.3705778008786885E-02    8.6916758699045627E-03    5.9770594795363743E-02   -2.1389228881475292E-02 \
              -1.2433224025642921E-02    5.1181272362409519E-02   -6.8197381378920516E-03    2.9859661906315737E-02    6.7874485951225293E-04 \
              -3.1454814559787325E-02    6.6283065365490140E-02    4.2156043944391826E-02    1.4692524729600985E-03   -4.1644912833771836E-02 \
               8.9561231319527937E-02   -4.4696577810661352E-02    3.6024122498372342E-02    3.0763492290764839E-02    3.6590199472683868E-02 \
               9.8307957025220698E-03   -5.7408309667914548E-02    4.7234052059746907E-02   -6.8212741681310373E-03   -5.5270967054590919E-02 \
               1.3077395815299134E-02   -2.6444791861991761E-02    1.6431168984480816E-02   -1.1781510020193769E-02    1.7267178583830266E-02 \
              -5.3242417934192571E-02   -4.2064204324357259E-03   -7.1636947350149291E-02   -6.8828448163687259E-02    5.0226231917953973E-02 \
              -1.3083356313570134E-03   -5.8764676685455850E-03    3.6824773027975898E-02   -2.3185222444077011E-03    6.3307592921155106E-03 \
              -8.7399932553750125E-03   -2.5201729466447397E-02   -5.2405554704513406E-02    2.2647498893485933E-02   -3.8599806470590186E-03 \
              -6.7031592776604434E-02   -9.6555120132952671E-02   -5.8628600755857574E-02    2.5537308557837136E-02   -8.1521144608488874E-02 \
               1.2213985244178854E-02   -4.1849333231566289E-02   -1.9629082085094469E-02    3.3286474047211037E-02    2.3722166965251396E-02 \
               2.7768053223249791E-02    7.9635754374942441E-02    7.1010472247077475E-02    2.0367610711308503E-02   -3.9311284244442378E-02 \
              -1.4026713578798066E-02   -3.1620226084309033E-02    7.6170131965436927E-02    4.6336592023361375E-03    6.5065259317112198E-02 \
               1.5711736519758050E-02   -3.2326752813062699E-03    5.5548361878373954E-02    1.4458909605388263E-02   -1.2356104763189634E-02 \
               2.1003436174436455E-02    9.4864552850422501E-02    1.2556094612673296E-03    2.4914940615849264E-02   -5.9180594324687447E-03 \
              -1.5520336049614204E-02   -3.8268795877047186E-02   -3.1454356753298787E-02    6.9214593959835827E-02   -3.3378188792870349E-02 \
              -9.9872085490872634E-02    7.6324825113431555E-02    2.7593682795284565E-02    1.4745872816277530E-02   -1.9464652333987101E-02 \
              -2.8818497180255299E-02    7.4126650901979053E-03    1.4221829743952058E-02    2.8493351822507527E-02    5.6683643907212845E-02 \
               3.0252352527470900E-02    1.2579308783415254E-02   -1.7725665787030206E-02   -4.2437521458510964E-02    3.0283091335176270E-02 \
               6.8645827457688879E-02    4.9874121357218103E-02   -2.9644986172227529E-02   -5.9449772357289293E-02   -3.5686410389873788E-02 \
               8.7516215781237833E-02   -1.8047150374682908E-02   -4.9906370053201005E-02    6.2234209656169701E-02   -3.8697125873522698E-02 \
              -1.0582199318380442E-01   -4.7486150983471226E-02   -1.0317507662926226E-02    4.9383628149198607E-03   -3.3061990187815062E-02 \
              -2.3354031825057749E-02    1.0939405714260619E-02   -2.7395947522909286E-02   -5.7248098044075824E-02   -2.6871291468774833E-02 \
               2.0648377231103315E-03    1.1290774241135765E-03    5.4579472447264174E-02   -7.4491564296206972E-02    7.4073036523961445E-03 \
              -1.5201246775202256E-02    9.7477497716053588E-02    4.5147578967148050E-02   -1.5046233227731062E-02   -2.5815183403847291E-02 \
               6.8245336698384326E-02   -1.6287625109250026E-02   -2.0176477912061355E-02   -5.7221033296876680E-02   -6.8391942999715641E-02 \
               2.7237287092438486E-02   -9.6332908629121802E-03   -2.3984729658103080E-03   -2.8701937613116117E-02   -2.8364657561991954E-02 \
               6.9824589852255758E-02   -2.4432280710145190E-02    6.0083079054311365E-02    1.0888647784309622E-02   -2.8111957089894172E-02 \
              -3.7514635452647119E-02    5.3965897544216983E-02   -2.6234022079891769E-02    4.6710988481154070E-02   -5.2767349907193770E-02 \
              -2.5562108543116812E-02   -1.6155352473102517E-02   -5.4429746160604878E-02   -5.8653450211956981E-03   -1.4291050610254180E-02 \
               5.0426300764241851E-02   -4.0259191438409350E-02   -2.9712460224460800E-02    4.2999895968128246E-03    5.6996436649857270E-02 \
              -1.2302984478248687E-02   -2.4659277171591314E-02   -4.5420105126030584E-02   -1.7289873299086767E-02   -6.3312162981936357E-02 \
              -1.6458781127181535E-02   -8.7402887631589141E-02   -4.6743910992797198E-02   -5.9347591205073283E-02   -4.6462270869548038E-02 \
               2.0685086441677341E-03    3.2253445335049959E-02    3.8709221937926401E-03   -7.1950612295232544E-02   -4.0615827712009106E-03 \
              -2.3725397390071928E-02    1.2981649730707220E-01   -2.4045928250442786E-02   -2.7553153835351361E-02   -2.7685623102919211E-02 \
               2.3723492969116459E-02   -6.7054518436470969E-03    1.2154556201320268E-01    2.7124642464032348E-02    7.0797605836347921E-02 \
              -6.6364446691316983E-02   -3.4407623748117074E-02   -2.9892764923332378E-02   -7.0553580039410826E-02    9.1288367049550401E-02 \
               3.5558243197968693E-02   -6.0768766533948797E-02    3.2706183899378613E-02   -8.5356457770142988E-02   -2.3655061099125567E-02 \
              -7.0995041702753749E-03    1.6149532873455216E-02   -2.4449054014696690E-02    5.1840261379567348E-02    1.3930095154252661E-02 \
              -4.8391448125859708E-02   -4.2114814812615163E-02   -7.2267338912629410E-03    6.1524880681309074E-03   -1.3147393791304857E-02 \
               3.0508887340210497E-02    1.1168777751341816E-02    1.1385500425737400E-02   -2.0077506170613303E-04    5.0059390259315627E-02 \
               2.4598010794036337E-02   -7.6501230871593356E-02    1.0101695430007995E-02    6.3122794556911055E-02   -8.7477671858465986E-03 \
               3.3105914802409001E-02   -8.1376173028780210E-03    4.5806156911332059E-02   -5.1674784855064916E-02   -6.9466632509186818E-02 \
               1.7831479564370881E-02   -1.1924595322439118E-02   -2.8687963672264442E-02   -2.0626824600243562E-02    9.6449020542510085E-03 \
               1.5868480372530275E-02   -1.7840641546281417E-02   -7.9611575994898168E-02   -7.6480033631602745E-02   -9.8440694007388956E-03 \
               5.4694365140419967E-03   -5.0706162782534397E-02   -1.1017423529284208E-01    3.4182127563052275E-03    2.9649653700025491E-04 \
               3.9262965145337066E-03   -3.1529828656629476E-02   -2.3673185342769857E-02   -3.4423348636882768E-02   -1.3213554407887851E-02 \
               4.9356155637184054E-02    5.2611410825834322E-02   -2.5320132772291167E-02    4.0396178060893476E-02    3.9611813707061488E-02 \
               3.6091422478139630E-03   -4.3462008033448010E-03    1.3944153169208976E-02    4.0651271288412363E-03    1.5910721390381990E-02 \
              -2.2763324919207878E-02    2.8594096711758141E-02   -1.4452026516557817E-02    2.0711805940494377E-02    2.8658328839654412E-02 \
              -2.5971489778340098E-02    9.8879185154227642E-03    6.9619525725635498E-02    9.5223319255786906E-02   -3.6358906236212156E-03 \
              -5.1702155117995842E-02    3.0550743009159980E-02   -1.6566891734498688E-02   -3.1780606107639511E-02   -3.3782093261425332E-02 \
              -1.0299996160439566E-01   -1.3451376388229292E-02    4.0694060819238620E-03   -6.3940187818103525E-02   -3.8752444007671472E-03 \
               6.9542078541827090E-02   -8.7823338190356273E-02   -1.0856050450930273E-01    4.2275000446485092E-02   -1.5628940845967252E-02 \
               2.2597634729628658E-02   -1.9843715658145078E-02   -1.2429529695050120E-02
         &END COORD
         &VELOCITY
               2.6266651642520664E-05   -1.3392162289161673E-05   -4.5842258501815383E-06    6.5311192372712829E-06 \
              -7.3645876305799745E-06   -8.0331435594004572E-06   -4.1139323297802007E-06   -1.1602528971755340E-05   -1.5210608344719128E-05 \
               2.9374818474967519E-05   -1.8981814508425848E-05    1.0521052972415799E-05    2.7770202929835344E-05   -9.5995923677968102E-06 \
               3.1774663448045606E-06    9.1571107894357417E-06   -1.0727944135410742E-05    1.9077217299757578E-05    5.6841289760336725E-06 \
              -1.1007754952308144E-05    1.1619773299547071E-05   -2.4613722108379114E-05   -1.7094947751424242E-05   -1.1234781813516369E-05 \
              -1.6431957672215024E-05    1.3955755465966890E-05   -1.4043475209395423E-05   -3.5708803437492522E-06    2.8767798617342498E-05 \
              -7.7841481583121962E-06   -5.8478220656096596E-06    2.3369203122059431E-05   -9.0490254859323657E-06    9.2810620245561265E-06 \