 # Version information for this restart file 
 # current date 2022-05-24 22:53:10.522
 # current working dir /home/nick/Documents/gitlab/pymatgen/cp2k_simulations/ar108/output
 # Program compiled at                              Sun Mar 22 16:45:27 UTC 2020
 # Program compiled on                                           lcy01-amd64-017
 # Program compiled for                                    Linux-x86_64-gfortran
 # Source code revision number                                         svn:18464
 &GLOBAL
   PROJECT_NAME ar108
   RUN_TYPE  MD
 &END GLOBAL
 &MOTION
   &MD
     ENSEMBLE  NVT
     STEPS  100
     TIMESTEP     9.9999999999999989E-01
     STEP_START_VAL  100
     TIME_START_VAL     1.0000000000000007E+02
     ECONS_START_VAL    -2.2736367447489101E+03
     TEMPERATURE     1.0000000000000001E+02
     &THERMOSTAT
       REGION  MASSIVE
       &NOSE
         TIMECON     9.9999999999999989E+02
         &COORD
               1.0318779908622536E-01   -5.5304123681019876E-02   -1.6872406498776828E-02    2.9711960817984565E-02 \
              -2.7456414076113322E-02   -3.0438493314216920E-02   -1.8773797595324816E-02   -4.4260478977744655E-02   -6.0474495714159540E-02 \
               1.2147188937965449E-01   -8.0982623549779864E-02    4.4532784638034381E-02    1.1445067279244170E-01   -4.0824988478520813E-02 \
               1.5637088940908511E-02    3.8330545614689925E-02   -4.2834769231083598E-02    8.1315760361806905E-02    1.6688747225036295E-02 \
              -4.3267854916219380E-02    5.0472907778824502E-02   -9.6821726929732052E-02   -6.9553981562415435E-02   -4.4902333717652010E-02 \
              -6.7992319068419002E-02    5.8318258229351605E-02   -5.6076982472336431E-02   -1.2996397149225540E-02    1.2066907212282477E-01 \
              -3.3545807513246199E-02   -2.3664752208753446E-02    9.8349664874498727E-02   -3.7308357846307982E-02    4.0965394340969685E-02 \
              -2.0967705094259326E-02    7.3221454768980676E-02   -1.5011583469598223E-03    2.0154894545304062E-02   -7.3609734142121491E-02 \
              -3.1385666304054628E-02   -1.5945740273308799E-02    5.3016316271979357E-02   -3.7078510876047866E-03    1.0437562515642242E-01 \
               6.3502919942162945E-03    1.1157043511607061E-01    3.9249244686584715E-02    1.6913150050583418E-02   -5.6368796856464207E-03 \
              -8.7647956344912112E-02    6.9033826349831962E-02   -8.3971294689494276E-03    2.1726774289984443E-02    2.1012047993451546E-02 \
               4.2719179753525689E-02   -7.3252375978615685E-04   -1.4364498375282963E-02   -4.2429376275378433E-02    5.1041872926246366E-02 \
               2.8770935993976534E-02    3.1850460158951294E-02   -9.0279865286996778E-03    1.2261845886407666E-01   -7.1462146911395297E-02 \
               6.3732898835284644E-04   -2.7634073120483042E-02    8.6883724541439319E-02    2.4532555787307084E-03   -3.6126899849252679E-02 \
              -1.6835419176825339E-01   -4.3742701715693477E-03    7.4453901838597509E-03   -5.9835738499360080E-02    4.7935522986920831E-02 \
              -3.9039335801631186E-02    8.3161873159347421E-02    5.8609951095948173E-02    7.8121818852102592E-02    3.1314332978238386E-02 \
              -9.2574644283480126E-02    3.1034675411872003E-02    2.8177968219970179E-02    9.4324189650696615E-04   -4.8539038942335954E-04 \
              -1.0271019966356607E-01   -1.1423862994150390E-02    3.4444121421462033E-02   -6.4439071598653516E-02    1.6458445530515315E-03 \
              -2.5457190000136527E-02   -6.6497975136775647E-03    7.1699469731740906E-02    5.6101098854651733E-02   -4.4060373601369635E-02 \
               3.2605618384489894E-02    5.9159521828121613E-02    1.1589733211819675E-01    6.9366178309399215E-02    7.2518443287709150E-02 \
               1.8032413322096090E-02   -6.0732578981571118E-02   -4.4582449255212792E-02    1.1291553322031658E-01    4.6880056193355245E-02 \
              -4.1669796519965115E-02   -8.0157033106212444E-02   -6.5709797687023536E-02    9.3907791787353288E-03   -1.0198553557290682E-01 \
               5.2499186395894806E-02   -2.8779298197469425E-02   -3.0379270876990144E-02    1.0262450068703896E-01    3.4764145903827037E-02 \
               5.4831583317045251E-04   -2.1486618984323570E-02   -5.1071899774420785E-03   -8.9879635731612562E-02   -2.6641202669401157E-03 \
               5.5761050237280296E-03    1.3261575787285880E-02    4.7250708693067764E-03   -9.8980267706516453E-02   -1.3200999659652492E-02 \
              -6.8855410134943604E-02   -3.4060273680690645E-02   -3.7240551926825599E-02   -3.1463383321573134E-02   -2.6860886220001948E-02 \
               1.2909330492184890E-02   -4.1464453672954434E-02   -7.6875639153440997E-03   -9.8391513719039578E-02   -9.8397548560356027E-02 \
              -2.7067753942778580E-03   -1.9705413711165333E-02   -3.5599606399363208E-02   -6.1250518543485427E-02    3.5523680346827922E-02 \
               1.3371404828113078E-02   -1.2621975516095332E-01    2.3653127577796574E-02    8.4990439426653477E-02    3.6510594141826367E-04 \
              -9.5881686242352951E-02   -1.4798263282626406E-02   -2.5741110186798193E-02    3.6763019149077515E-02   -3.2542937195172483E-02 \
               1.6856722169281753E-02    3.3499661226609960E-02   -6.6030047325992148E-03   -6.0495196464371362E-03    6.9327574193019256E-02 \
              -6.0523532410378104E-02    6.7746025011021754E-02    2.6216385851770309E-02    1.1898410309326771E-01    6.4980768836458369E-02 \
               3.7486322051653628E-05    3.0265226015218001E-03    1.0278843222008205E-02   -9.4757576967471890E-02   -1.7379610544392309E-02 \
              -1.0542214703489602E-01   -5.5695777033188801E-02   -5.9627150827705311E-02   -1.4240709020532373E-02    7.1167573282023402E-02 \
              -1.3987047048251950E-02   -3.5857756084583574E-02    1.0951816962427030E-01   -2.4946143480292410E-02    7.7748890749938210E-02 \
               2.1817993234338848E-02   -1.0775600085486614E-02    8.0145243228659693E-02    4.8196383872669030E-02   -3.0821076097986729E-02 \
              -2.5310953671878144E-02   -2.0917203503858589E-02    3.6872254656291820E-02    6.2646992107656632E-02    2.8457358391617817E-02 \
              -6.8898693070718012E-02    6.9668369554592444E-03   -1.5189219026560567E-02    6.9369638622009721E-03   -2.6019286251309139E-02 \
               5.7900828168535645E-02   -4.9761213134274070E-02    4.5408844027142486E-02   -4.4067646770199941E-02    5.5014855288871282E-02 \
              -8.4380894949383972E-02    1.5498148693638431E-02   -5.2549290739695130E-02    7.7737717465646838E-02   -3.6026964582972339E-02 \
               4.0827823928763086E-02    7.2961220688305281E-02    7.7243481944609851E-02    4.0148574250677423E-02    9.4126952329134164E-02 \
               2.7525580638054954E-02    1.0591737558844296E-02    7.4225688522064261E-03    5.5451908989372807E-02    1.6714784347079858E-02 \
              -1.4401461668308044E-01    4.6725589340917709E-02    5.0276097330360821E-02    1.3251706771379304E-01   -9.6198914590046973E-03 \
              -6.0925711871776464E-02   -3.3058867913939458E-02    4.6138448162388872E-02   -1.0710313702855025E-01    4.1750824225845043E-02 \
              -4.1532293208856749E-02    8.4076553497766215E-02   -4.8314932196087068E-02   -5.6657091820852531E-02   -3.9794016876850684E-02 \
              -3.1109491585363268E-02   -5.0982937990801183E-02   -1.1476690763088317E-01   -1.9719145495782003E-02   -3.3772137484817492E-02 \
              -8.7352700972256142E-02    1.1074323024655000E-01   -3.6051271492297636E-02    1.6121741211191695E-03   -9.1519365202776662E-02 \
               1.8222194454174893E-02   -2.3393808028468875E-02   -7.4404950984895246E-02    6.0441709632974598E-03    1.2077877027380106E-01 \
              -2.9433121375035756E-02   -3.0451581699573359E-02    4.5116435802938747E-02    1.1387746372387543E-01   -1.1384169058599758E-01 \
               2.7727471604879563E-02   -6.3317613676681692E-02   -1.0924685260943456E-02   -1.0953679049681636E-01   -4.4374049662979651E-04 \
              -3.5424373423252588E-02    6.5007576930749558E-02    4.9676260044615984E-02   -4.2579858041965846E-02   -2.7726527364550224E-02 \
              -3.5338821147987483E-02   -1.7214382997031003E-02    2.4444493339392647E-02    5.4706728681749334E-02   -1.0671873498553809E-02 \
               9.1159240594365559E-02   -9.0964433261489386E-03    4.7884149453750080E-02   -4.9844521214497131E-02    3.3669166165023003E-02 \
               9.3839359303540301E-02    6.9762577684073193E-02   -6.4691657487363413E-02   -1.3279428778920266E-02    3.1059069884822075E-02 \
              -1.9076962981247652E-02   -4.4507810115622076E-02   -5.1174500144831785E-03   -6.7545473232208497E-02    2.5074921505751798E-02 \
               5.6785743032465230E-03    4.1062130919239002E-04   -9.1324516319226930E-04   -2.5197913785150682E-03   -1.2196637786374187E-01 \
              -2.3292352191199357E-02    3.6825015084843149E-02   -6.0266152335271057E-02   -6.6910080688124818E-02    1.0380742103022953E-02 \
               7.6008442384780855E-02    1.7668720732266701E-02    1.0184668604332089E-02   -1.7026868492589588E-02    4.2927997054598363E-02 \
               2.7223354597659774E-02   -9.2140122808999220E-02    2.6520065904596896E-02    3.9948403405108052E-02   -5.5992020981955458E-02 \
              -2.1506245522857981E-03    3.2219728580964953E-02   -3.5599896549699714E-03   -1.9602763402521077E-03   -6.0339479740623869E-02 \
               9.2325961171890146E-03   -7.0594152023409587E-02   -5.3761967687478984E-02   -2.8546051945404480E-02    6.6523920307032372E-02 \
              -5.0288367344881603E-02   -2.5562354208783132E-02    1.1430317791725162E-02   -7.1091517383620392E-02   -2.4066855263503138E-02 \
               2.2711617500236422E-02   -2.6091608220674210E-02   -9.3908659581536016E-03    1.6017794203323785E-01    6.5945666462340499E-02 \
               3.4932791427013554E-04   -9.6703995509260662E-02    3.0385901455813769E-02    8.4632257202768513E-02    6.4540890788115118E-02 \
              -1.2070125212652168E-01    8.6741449922282707E-02   -9.1370428869043702E-02    6.1135262611967001E-02   -1.1890882808644360E-02 \
              -7.0288925682413968E-03   -1.7674619792398332E-03    4.3644860914676002E-02    7.4820023065137714E-02   -2.8227123603431825E-02 \
               6.4388719392715135E-02    6.9548307725705763E-02   -8.2773963587158966E-02   -3.0491404340808385E-02    8.6715533891298616E-02 \
               7.9989484698800184E-02    4.5680019004727998E-02   -1.6169887198944274E-01   -3.1672007267135240E-02   -4.6916504770844929E-03 \
               1.9028144437159451E-02   -1.7079931611425601E-02    5.4562143693954394E-02   -1.3007229462711270E-01    7.5237024026382368E-02 \
              -1.3136992863016123E-01    4.5148410220204147E-02   -1.4878749721003337E-02   -8.9606267327218950E-02   -2.3056891675501154E-03 \
              -6.6672506786155730E-02   -2.2513773230618823E-02    3.7662566989700205E-02    4.6996034074795058E-02    1.2305792237603601E-02 \
              -5.7159857197531666E-03    3.9215473377158312E-02   -1.0475811578263997E-01    8.9043235754465724E-02   -5.3799531028116042E-02 \
               1.6565137345225724E-02    3.8007466481333865E-02   -3.3842452815316407E-02    3.4253916072907196E-02   -1.0747429967577710E-02 \
              -6.2644834032310026E-02    2.4038141438409901E-02    2.0585891697566853E-02   -6.2627385867017341E-02   -1.3454681387264739E-02 \
               2.4346089919341118E-02    1.0727555564708104E-01   -3.9800615354401971E-02   -4.8512332173500143E-02    1.3354133609660493E-02 \
              -4.0412582544418638E-02    6.6683018626711582E-02   -2.9290091748644182E-02    6.7219205920965350E-02   -6.2501331607034916E-02 \
              -9.0947205723604929E-02   -6.6856689334967925E-02    4.2428102227737872E-02   -2.1625688466977711E-02    8.6262778135286489E-03 \
               7.5249267772758449E-02   -9.2495175582867878E-02   -6.3247186951073703E-02   -3.4363278047369231E-02   -7.1126303819652334E-02 \
               3.9899132474774647E-02   -4.9095055557651722E-02    8.3520213394948598E-02    9.0554684571944079E-03   -1.1003627151785543E-02 \
              -2.5384438680219328E-02   -5.3464633315984181E-03    1.1085638008883568E-01    6.7942450621906472E-02   -6.5909429239337430E-02 \
              -2.0805990586566604E-02    5.6366682084762504E-02    5.5081086281052363E-02   -1.4725818336955164E-03    8.3704721280506694E-03 \
              -1.5221321468657040E-02   -5.8661617004026424E-02   -3.3554672456606656E-02    5.3349394082213238E-02   -1.4973857323265297E-02 \
               3.4624488021479327E-02   -5.7382572272649882E-03    2.9208588902170800E-02    8.8709584889309565E-02    9.1130698548761973E-03 \
              -1.1452357721570225E-02    1.1112088430749159E-02    1.2590960702060859E-02    9.3930050058063846E-02    4.0909817187825055E-02 \
               4.8036177016682072E-02    3.2529143511857248E-02    8.7466934163188490E-03    1.2224961623455659E-01   -1.2528010300023439E-02 \
               2.2945952541289911E-02   -3.2040329983416334E-02    9.5924203897945495E-02    3.2893255961348171E-02   -1.0781104310248638E-03 \
               4.7668828266268858E-02   -1.3700863078003368E-02   -7.0693864736842402E-02   -8.7939480133132589E-02   -3.2332991021140893E-02 \
              -4.4750508110489959E-02   -5.6288728706082668E-02    2.6879752593124240E-03   -2.6246285327025474E-02    1.1706204908552361E-03 \
               5.1352665089272453E-03    1.6937799324612642E-02   -8.6773105223917457E-02   -4.6738103701412452E-02   -4.6056743601512670E-02 \
               3.1889342970333093E-02   -2.7351678389261648E-02    5.5744124263505224E-02    4.4481729198797412E-03   -4.2037409806787641E-02 \
              -1.3341353325686782E-02    7.0106407146921082E-02    9.9729596715681088E-02   -1.2397453938833755E-01    5.6843380288862967E-02 \
               3.8711793440637694E-02    9.1369866435176590E-03   -3.5503129386452760E-02   -6.2637116662741271E-02   -1.8147655375587803E-02 \
              -7.7761592389336442E-02   -8.6572795367601318E-02   -3.1395493690371805E-02   -3.7000822671686043E-02   -7.1716059091527548E-02 \
               1.0142981728464612E-01   -3.2920665815775581E-02   -1.2177032483684622E-01    8.3177721129952378E-02   -1.4548757071407268E-03 \
               8.2205854357777622E-02   -4.8195925497822742E-02   -4.5107593191804060E-02   -8.3628147751289142E-02   -2.2289822206722448E-03 \
              -1.8291247322187725E-03   -1.5724369858104034E-01   -9.8506305216764893E-03    2.8240499186584830E-02   -6.4449157160086534E-02 \
               8.0158960437048624E-03    1.4022574499129042E-01    9.3694034479360599E-03    4.7950341427205077E-02   -3.7443408990630464E-02 \
               4.8930317778031043E-02    6.5103833560519631E-02    1.0014080711430232E-02    4.2938916357761356E-02   -5.1465387270735172E-02 \
              -6.0824407516345512E-02    5.4819845893955027E-02    3.0373237005288670E-02   -8.2020820881008719E-02   -1.1516155667004582E-02 \
              -6.8094237848312436E-02   -8.1237886268270665E-02   -6.8546441767662947E-02   -8.7178866231254995E-02    6.8428935667904159E-02 \
              -2.2534580427729244E-03   -7.0876847063528212E-03    6.7366003920518976E-03   -1.1219918194786307E-02    7.3901135621543736E-03 \
              -2.3062008991885270E-02    6.2479644417481840E-03   -7.3687674663936720E-02   -7.4719757753647670E-02   -4.4449676031350326E-02 \
              -3.6149816008853404E-03    2.2386415156465962E-02   -3.6695020438018325E-02   -7.0408652299225910E-02   -9.0111761015601310E-02 \
               3.5722081907419434E-03    6.9515463949937892E-02   -3.0468079163451244E-02    1.6268676311290170E-01    2.6938689987154579E-03 \
              -7.6562312309461176E-03   -3.1215584410365187E-02    5.6280497185647302E-02    7.4209836854850303E-02    5.4057555056070794E-02 \
              -6.4597589621630577E-02   -6.5328919145662231E-02   -9.8347233901486864E-02   -6.8447146039628858E-03    1.1644929573622062E-01 \
               1.9406515044297440E-02    7.5736561684752915E-02    4.5366831696664845E-03    5.9086757135685439E-02    1.7932463396031599E-03 \
              -4.8924800033369457E-02    4.8626700075443459E-02   -6.5352784839250208E-02   -2.1705924313357956E-02    4.4046038547054120E-02 \
               1.3628858976448478E-02   -4.4529573331798869E-02    4.1685255881068278E-02   -4.3086569580571443E-02    6.4956586352506257E-02 \
              -1.6292825226279836E-03   -2.2413027952728183E-02    1.5978479957212147E-02    3.4309069589268399E-03   -2.3546780886752047E-02 \
              -1.0544529618931409E-01   -4.3780933959237593E-02   -2.9311672006142226E-02    2.7600068659883802E-02    2.2687336769218525E-02 \
              -3.2872379838105217E-02   -5.5429535960953999E-02    6.9622997676982032E-02    2.0530389473097748E-02    2.3558513393908803E-01 \
              -3.5069717284965392E-02   -1.4791714374793945E-02    8.0457894213142159E-02   -4.1013022320787754E-02    7.6257930140977467E-02 \
               6.5734734756159971E-02    3.4685205557155020E-02    1.7752959256035039E-02   -1.5861860743482795E-02    1.1183246425869781E-02 \
               6.2860569005833908E-02    7.2527622246024950E-02    8.4393609752229176E-02   -7.3855565490400510E-02   -2.0060897127826938E-02 \
               6.2520637259616763E-02   -2.1076722051900149E-05   -6.4664527144555103E-02    1.0747762203860705E-02    2.9434002592440750E-02 \
               2.8938458141528019E-02    4.8541835876088908E-02   -1.4417283020838234E-01   -1.3527127557640159E-01    2.2185716285539669E-02 \
               9.6932772712012227E-02   -2.3857545855912547E-02   -4.8866830945626101E-04   -8.1244873247530408E-02    1.0152911326683772E-01 \
               3.2549370659031900E-02   -4.7641566680106051E-02   -2.7088605630862178E-03   -1.3043071957570754E-01    9.6672611777068984E-02 \
               3.7096699904549876E-02   -4.9475039281957484E-03    1.3683977818256018E-01   -2.2989043115866099E-02    2.6417345366187828E-02 \
              -5.0296197851887825E-02    7.6854829432717112E-03   -1.0079561818911900E-01   -6.9977766524138049E-02    6.8624552222320057E-02 \
              -2.4540765853377541E-02    9.8223246498503142E-02   -7.5516399611674195E-02    1.3955910312858459E-03   -1.7226317791119028E-01 \
              -1.4504309400783166E-01    2.9219161647125236E-02   -1.1445955670111391E-02   -9.3032621159035295E-02   -8.1677655509341515E-02 \
               6.0590720546369860E-02    1.1813456899433595E-02   -1.1015025446451582E-01    1.1829882871652274E-01    5.7357551676201326E-03 \
              -4.5916445100593860E-02    1.5904083357642623E-02   -6.7294829914333687E-03    7.4147883281359614E-02    5.0293616729173311E-02 \
              -8.8042982262723626E-02   -1.1509655153583551E-02   -6.4535680207444893E-02    1.0167723978846108E-01    2.9554334597875861E-02 \
              -6.8856970997380668E-02   -8.6266662043137515E-02    7.1480519181034555E-02    5.1066126447471549E-02   -1.1518526674954184E-02 \
              -4.1638973294424085E-02   -9.5085463813581961E-02   -5.0998674296022388E-02    8.1107801222981765E-03   -2.6349863920071055E-02 \
              -1.4041740232210137E-02   -5.5210365581407669E-02    2.8483530995182353E-02    5.8019831914805026E-03    4.9344838242239217E-02 \
              -3.8567119688422469E-02    4.7631394937468893E-03   -5.9158616972785356E-02    5.4091966150175051E-02   -4.8998593373547540E-02 \
               7.5898762571028622E-02    1.5741256471652084E-02    2.8870962287230264E-02    3.8566240841091379E-02   -1.3242943990653224E-02 \
              -8.1413708813375771E-02    8.0109547593360447E-02    1.0260354296902762E-02   -1.7119196587871425E-02    1.7003203438448668E-02 \
              -4.0088365029918679E-02    7.6969472173938916E-02   -2.2857431719981502E-02   -8.7341053661897025E-02   -5.2042362690597060E-02 \
               3.5212418511728154E-03   -4.4201261598043884E-02    9.4760161165230339E-02    1.0073268146285955E-02    4.3453589721453439E-02 \
              -4.6874753392250099E-02    2.7575671330796466E-02    7.8787352372830216E-02    7.2285401401984304E-03   -2.9838204064196144E-03 \
               3.9784945300058300E-02    4.7504170627429440E-02   -4.3267018993687872E-02    4.5513894172559556E-02   -2.4311303200410814E-03 \
               2.6072522076245538E-02   -5.5476410176734249E-02   -3.1162225745423187E-02    1.4626275720847192E-02    2.4680536652018688E-02 \
              -1.3070583720337928E-01    6.1109074366122208E-03    8.1754988243498052E-03    1.1474415751124252E-01   -2.9561951190001511E-02 \
              -3.5841828017011544E-02   -3.5379652063622702E-02   -3.8806442916664824E-02   -5.4575934104661009E-02   -1.8481967341774166E-02 \
              -4.2963616270212654E-02   -1.3577054966676882E-02   -2.1820632152801975E-02    3.8194631841915468E-02   -1.0367071380015285E-02 \
               1.8544195321233786E-02    2.8637919061616463E-02    9.9414753584380258E-03    7.4353406841616690E-02   -2.7236532937197990E-02 \
              -1.6464592656724879E-02    6.3115542134786110E-02   -9.1031578056192299E-03    3.6334060431700559E-02    3.5977932572868287E-03 \
              -3.9980506193969340E-02    8.2019311179600318E-02    5.2127879270448554E-02    1.1023456144967866E-03   -5.3055877282085370E-02 \
               1.1166721055904708E-01   -5.5387207603955969E-02    4.4331400586765331E-02    3.7460291108990004E-02    4.4824991437166790E-02 \
               1.1481762536644428E-02   -6.9887781990471104E-02    5.8573339411571827E-02   -9.1883563744970878E-03   -6.9894602594169700E-02 \
               1.5901143157991800E-02   -3.4032089469598306E-02    2.1246303679104947E-02   -1.5645473692692421E-02    2.0611831796261668E-02 \
              -6.7445439862598225E-02   -5.8497752531354802E-03   -9.0541851042714658E-02   -8.6022987102241016E-02    6.2540981556199471E-02 \
              -2.2473801500765968E-03   -8.2969935297407139E-03    4.5059365708415636E-02   -3.7034363959303563E-03    7.4973328905909541E-03 \
              -1.1963819389174788E-02   -3.2484785716367939E-02   -6.3991816529422443E-02    2.7720037743141759E-02   -5.7509990424358748E-03 \
              -8.5686142902529322E-02   -1.2181701665146398E-01   -7.2771982098251323E-02    3.2349476824415239E-02   -1.0263091218635113E-01 \
               1.5336337931054161E-02   -5.3171954691874433E-02   -2.5143125610045617E-02    4.0674682297458402E-02    3.4871360043400426E-02 \
               3.3564354088528453E-02    9.8649636635911336E-02    8.7958803181285933E-02    2.5343492727993380E-02   -5.0075296913802345E-02 \
              -1.7141395946669219E-02   -4.0115034801798843E-02    9.4378537715043245E-02    4.8872962290007170E-03    8.0183699902844505E-02 \
               1.9264796094941684E-02   -3.7712216618336282E-03    6.8322353542121697E-02    1.7525755488551460E-02   -1.3895811062016388E-02 \
               2.4993750982279014E-02    1.1763762087439375E-01    6.0072444697386880E-04    3.0170605768849158E-02   -8.3119068785027974E-03 \
              -1.8074657790412698E-02   -4.9012968757937918E-02   -4.0065711167866148E-02    8.6085018422781087E-02   -4.2536335946946523E-02 \
              -1.2565230588014623E-01    9.4156700035420468E-02    3.4299153849895292E-02    1.7548997407761398E-02   -2.4495469891373363E-02 \
              -3.6935126006224742E-02    8.4094249152286953E-03    1.6854243509502022E-02    3.4413110717149503E-02    6.9965392304251403E-02 \
               3.7082519192525275E-02    1.4890557070213719E-02   -2.3136962115747835E-02   -5.2768328502387371E-02    3.6826809719950032E-02 \
               8.4935800398357950E-02    6.1624352584808306E-02   -3.7980478907547369E-02   -7.5160814257774933E-02   -4.5084172714020064E-02 \
               1.0884286204463631E-01   -2.2386169863950589E-02   -6.2857215011934975E-02    7.7573699422805967E-02   -4.8773296587270698E-02 \
              -1.3400945114211285E-01   -5.8595359459276623E-02   -1.3560975341151339E-02    1.0330090528733451E-02   -4.2434324420744816E-02 \
              -3.0002311416006247E-02    1.3477507872908915E-02   -3.5496747423217456E-02   -7.2424570438175503E-02   -3.4348846833959459E-02 \
               1.7044008051576658E-03    4.1177408288174428E-04    6.7900224674638646E-02   -9.3573307352489379E-02    9.1431989735667862E-03 \
              -1.5778411832799086E-02    1.2018841934035455E-01    5.6840956856444087E-02   -1.9743361059372418E-02   -3.2945164665994398E-02 \
               8.4420028316148227E-02   -2.1244106349926309E-02   -2.6373153766046271E-02   -7.2449998055584094E-02   -8.6069595022307321E-02 \
               3.3843685534422109E-02   -1.2928622162158246E-02   -4.0047230836920645E-03   -3.7016715006968896E-02   -3.6309747170971497E-02 \
               8.7170878385665049E-02   -3.0554033739790959E-02    7.4197232927926196E-02    1.2671820198706624E-02   -3.6308308833021025E-02 \
              -4.7752407008622322E-02    7.0057419169254356E-02   -3.3077326259524455E-02    5.7500627477285592E-02   -6.6487959721265116E-02 \
              -3.2574030209498943E-02   -2.1083765487597352E-02   -6.9043022796862807E-02   -7.8569882661714049E-03   -1.8856606707944555E-02 \
               6.5126282000682850E-02   -5.1071138416370926E-02   -3.7871281432741571E-02    5.5418603511344271E-03    7.0362505543025367E-02 \
              -1.5895702676438524E-02   -3.1970524232628243E-02   -5.7800227349758940E-02   -2.2265773314787980E-02   -8.0154817408221349E-02 \
              -2.1156678816704931E-02   -1.1020610730448334E-01   -5.9894803717755227E-02   -7.5257836435801917E-02   -5.8494362799982956E-02 \
               2.5530736437308112E-03    3.9305024183349857E-02    3.9857042010270167E-03   -8.6971296363690442E-02   -5.3808841532970606E-03 \
              -3.0653611901160241E-02    1.6170949044995572E-01   -2.8555631576881430E-02   -3.5367374544015714E-02   -3.5084763004294958E-02 \
               2.8809377120444114E-02   -9.3033466611904467E-03    1.5057130841168664E-01    3.4825687217147412E-02    8.7625955381762585E-02 \
              -7.9844919006137938E-02   -4.3586618834085634E-02   -3.8171872627801536E-02   -8.8136505020594502E-02    1.1337931319529733E-01 \
               4.4717054029276573E-02   -7.6322634809098219E-02    4.0912206002671578E-02   -1.0752811550625754E-01   -3.0299056571437243E-02 \
              -9.7589307953634737E-03    1.9198637146597877E-02   -3.0879205927385339E-02    6.3795385755751916E-02    1.6807141638852482E-02 \
              -6.1581472437988637E-02   -5.3308115758181132E-02   -9.7416823162886253E-03    7.6258383533619346E-03   -1.7362373221425576E-02 \
               3.7169980234264190E-02    1.3014367623366142E-02    1.3249276476067648E-02   -1.2354644865849749E-03    6.3623555844392943E-02 \
               3.0466231599596307E-02   -9.6535596094050671E-02    1.4810174468888819E-02    7.8024291220922415E-02   -1.1339528062702681E-02 \
               4.0469625771063437E-02   -1.0950875163504915E-02    5.6271713326958801E-02   -6.4206139043300359E-02   -8.7224114969201183E-02 \
               2.2056914091324931E-02   -1.4830128173311473E-02   -3.6944653410375415E-02   -2.6638479918526387E-02    1.1699570573871521E-02 \
               1.8891329854624640E-02   -2.3268165394806719E-02   -1.0133262733250327E-01   -9.5654478955218267E-02   -1.2387449224471291E-02 \
               7.3452815039528217E-03   -6.5309834797207061E-02   -1.3826492989210937E-01    3.5884428458934259E-03   -6.2838752384933457E-04 \
               3.9086008745004832E-03   -3.7909930524194412E-02   -3.0600218471089478E-02   -4.3929081024684256E-02   -1.7317774381800228E-02 \
               6.0347644071296974E-02    6.5112796384632673E-02   -3.2455446960470237E-02    4.9374346470700811E-02    4.8747875049720765E-02 \
               4.7968351685480012E-03   -6.4191083944861787E-03    1.6436134090804848E-02    5.0010030772412346E-03    1.8944955249780755E-02 \
              -2.9421326322034199E-02    3.4991106424215011E-02   -1.8900418828399664E-02    2.4928985796798041E-02    3.4948920489636832E-02 \
              -3.3312171614738519E-02    1.1476791581727257E-02    8.5933643610643470E-02    1.1879491156045287E-01   -4.1378934630542262E-03 \
              -6.3732935596989296E-02    3.7664362332383204E-02   -2.1570375119395323E-02   -4.0671824696436029E-02   -4.3640174906528759E-02 \
              -1.2954634247416294E-01   -1.3290763296819070E-02    4.1281280069598832E-03   -8.0923783924033682E-02   -5.3653981990135335E-03 \
               8.6888408138238407E-02   -1.1002498243943566E-01   -1.3575256784814041E-01    5.3800192100951237E-02   -2.0236093509282380E-02 \
               2.7863103314560118E-02   -2.5774973831306613E-02   -1.6465019604660250E-02
         &END COORD
         &VELOCITY
               2.6917076791279458E-05   -1.3343099702455673E-05   -4.9202075455967310E-06    6.1104647781607543E-06 \
              -7.8672967959892231E-06   -8.4689559819025357E-06   -4.1560703443833170E-06   -1.2223928118419404E-05   -1.5577029538636640E-05 \
               2.9364429474805334E-05   -1.8590491481477799E-05    1.0329072436907638E-05    2.7637112819435468E-05   -9.4250172572931731E-06 \
               2.7684934087769241E-06    9.1067198948445934E-06   -1.0973357116480381E-05    1.8690791874667098E-05    5.8578016257467429E-06 \
              -1.1357984787213729E-05    1.1239407299640533E-05   -2.5452296043857834E-05   -1.7221719856839980E-05   -1.1475061384907524E-05 \
              -1.6283946904199039E-05    1.3856696481063882E-05   -1.4367354145012391E-05   -3.9598437787827312E-06    2.8477656853476320E-05 \
              -7.5905163320883946E-06   -6.1869085618907772E-06    2.3089460297199447E-05   -9.0866457755781526E-06    8.9196783597007727E-06 \