 # Version information for this restart file 
 # current date 2022-05-24 22:48:02.112
 # current working dir /home/nick/Documents/gitlab/pymatgen/cp2k_simulations/ar108/output
 # Program compiled at                              Sun Mar 22 16:45:27 UTC 2020
 # Program compiled on                                           lcy01-amd64-017
 # Program compiled for                                    Linux-x86_64-gfortran
 # Source code revision number                                         svn:18464
 &GLOBAL
   PROJECT_NAME ar108
   RUN_TYPE  MD
 &END GLOBAL
 &MOTION
   &MD
     ENSEMBLE  NVT
     STEPS  100
     TIMESTEP     9.9999999999999989E-01
     STEP_START_VAL  60
     TIME_START_VAL     6.0000000000000036E+01
     ECONS_START_VAL    -2.2736367447489101E+03
     TEMPERATURE     1.0000000000000001E+02
     &THERMOSTAT
       REGION  MASSIVE
       &NOSE
         TIMECON     9.9999999999999989E+02
         &COORD
               5.9796236579296343E-02   -3.3165928586709768E-02   -9.2914614670337615E-03    1.8909028953355115E-02 \
              -1.5275013179522672E-02   -1.7156115797969159E-02   -1.1915989703588837E-02   -2.5070671728261093E-02   -3.5324654259928236E-02 \
               7.2894909165511654E-02   -4.9591311100322152E-02    2.7138009254434416E-02    6.8556287864142543E-02   -2.4948506873427579E-02 \
               1.0383438640594793E-02    2.3185006279162097E-02   -2.5094347683731255E-02    4.9767426852289166E-02    7.4247524691846015E-03 \
              -2.5065830676110099E-02    3.1256048812466013E-02   -5.6113926309567123E-02   -4.1292841714279910E-02   -2.6324983879313882E-02 \
              -4.0838259382702559E-02    3.5240406860806518E-02   -3.2853293451345439E-02   -7.0805530457309779E-03    7.3098273003645922E-02 \
              -2.0669736062318304E-02   -1.3963355881706269E-02    5.9704690894885802E-02   -2.2341403765685323E-02    2.5607942455928553E-02 \
              -1.1764113445879907E-02    4.5078777979854316E-02    1.8639978075397748E-05    1.3116363314823345E-02   -4.3013630667082255E-02 \
              -2.1190514011121469E-02   -8.5836917237327639E-03    3.2977963884891368E-02   -2.4649802840039361E-03    6.3904240186003949E-02 \
               3.7111484233769685E-03    6.8650908331303842E-02    2.3346107961014880E-02    1.1161908609939543E-02   -2.7287417415705734E-03 \
              -5.2118930148891247E-02    4.1695553378585062E-02   -7.3576789892244102E-03    1.4280609030986779E-02    1.3751837023916944E-02 \
               2.3674781132426648E-02    5.3914089348634407E-04   -7.4191662874593224E-03   -2.4545781588877453E-02    3.1779980139653635E-02 \
               1.8153709294315826E-02    2.0265580056355866E-02   -4.4725267897164954E-03    7.4760391673688115E-02   -4.1751508468566165E-02 \
               9.6259957051864021E-04   -1.5380587989746541E-02    5.2092090697632848E-02    1.7742607191207624E-03   -2.0476849506958151E-02 \
              -1.0013870788584478E-01   -4.8308761746218374E-03    5.6637920976517668E-03   -3.6416690140483654E-02    2.9312044117408925E-02 \
              -2.2497778638059338E-02    5.1630095092360835E-02    3.6090763299260871E-02    4.7663763361337867E-02    1.9198621502240946E-02 \
              -5.4807115009929852E-02    1.8787715568289152E-02    1.5463929812494583E-02    1.6671340944104912E-03    9.0829128655988604E-04 \
              -6.0800472498317916E-02   -6.9719957721510019E-03    2.1850824081615875E-02   -4.1286119624067988E-02    1.6975636598519175E-03 \
              -1.4074763636432615E-02   -3.1824802804412233E-03    4.4692814442651184E-02    3.4251185541907127E-02   -2.5438062068202223E-02 \
               2.0755708307326749E-02    3.6570476699766472E-02    7.1427323649012914E-02    4.1826615173130001E-02    4.4133488026335536E-02 \
               1.1637459451785737E-02   -3.4948401705306650E-02   -2.5998553843023110E-02    6.8338189760949422E-02    2.7562247399772671E-02 \
              -2.4067616761425371E-02   -4.6499310823902525E-02   -3.9077658757530769E-02    6.3141695816221945E-03   -6.1582146281198569E-02 \
               3.1265823890760429E-02   -1.6399209493540064E-02   -1.7510885702380026E-02    6.3089156621763690E-02    2.0804594611105280E-02 \
               8.7148578488160532E-04   -1.1677386222667955E-02   -1.9219578236026370E-03   -5.3390678855501160E-02   -1.3689992875965675E-03 \
               4.5447405714502138E-03    6.7983567727454485E-03    3.9631213279424371E-03   -5.8190957831168691E-02   -1.0690670497765392E-02 \
              -3.9846702987288492E-02   -1.9812098957645647E-02   -2.1140006979511364E-02   -1.7743698981182759E-02   -1.5038203324049157E-02 \
               8.7991217848890947E-03   -2.3657842170832846E-02   -3.6226292047341732E-03   -5.9308354797422011E-02   -5.8970370136699507E-02 \
              -1.5861301123804013E-03   -1.0836318365612763E-02   -1.9942049909393158E-02   -3.5706350559247001E-02    2.1691011285527664E-02 \
               8.8737400552923781E-03   -7.4552876316320599E-02    1.5613509037620888E-02    5.2131967541743852E-02    5.5810164714493017E-04 \
              -5.6402201339237248E-02   -8.7407309103356458E-03   -1.4271209890083097E-02    2.2711565881691993E-02   -1.8551112437691829E-02 \
               1.1184584450780797E-02    2.0480014967227352E-02   -2.8893608938935942E-03   -2.4358187372663037E-03    4.1725512267056813E-02 \
              -3.6182717631622389E-02    4.1407643073037466E-02    1.7289419686177476E-02    7.3436221978048777E-02    3.8504275511497238E-02 \
               1.2162500080162661E-03    3.0191192002944388E-03    7.3659282828182175E-03   -5.6383196702636841E-02   -1.0086866746793172E-02 \
              -6.2089996256273879E-02   -3.1841991020894127E-02   -3.4850824007369330E-02   -7.7753579274268550E-03    4.3669287214748699E-02 \
              -7.7332393107527701E-03   -2.0338793179815039E-02    6.5621466674977147E-02   -1.5438741708268323E-02    4.7775407172717811E-02 \
               1.1034129816221963E-02   -5.4322197775110133E-03    4.9272006422205444E-02    2.2815302435842337E-02   -1.7516817244815040E-02 \
              -1.4103637684059062E-02   -1.5234358026854983E-02    2.3542044221203394E-02    3.8627841017340334E-02    1.7795438094763069E-02 \
              -4.0292539335736295E-02    4.8054799902942699E-03   -7.9932817308387815E-03    5.3123266287891857E-03   -1.4417288781160905E-02 \
               3.5593549869032563E-02   -2.9326159595610163E-02    2.8146556141870754E-02   -2.9628925962635718E-02    3.3420564410816457E-02 \
              -4.9790895023642895E-02    7.4308623176873208E-03   -3.0851937900412883E-02    4.7508571755664475E-02   -2.3251504149031616E-02 \
               2.5898692050052265E-02    4.4779850726416062E-02    4.5626313857158679E-02    2.5021908001835801E-02    5.7485319759489312E-02 \
               1.7488583180901282E-02    7.4748160298329976E-03    5.6404032891995259E-03    3.4567533073433639E-02    1.0576740297105331E-02 \
              -8.5241934432228578E-02    2.7656760329672229E-02    3.1891482315356517E-02    8.0412271353516085E-02   -4.4985520939483077E-03 \
              -3.5122531630284858E-02   -1.9087136641579520E-02    2.5680404906150023E-02   -6.3863493680866440E-02    2.4870052194717832E-02 \
              -2.4263208215294641E-02    5.0949509069701970E-02   -2.8634280598521300E-02   -3.2625878997948429E-02   -2.2916068193851492E-02 \
              -1.7658748739519083E-02   -2.9628121223553638E-02   -6.7704193300850826E-02   -1.2221971447485172E-02   -2.6500229837322618E-02 \
              -5.2509763734898129E-02    6.6732483436560353E-02   -2.1488546173271048E-02    1.9971082462094092E-03   -5.3712206774632607E-02 \
               1.2082491710583426E-02   -1.2661723204787121E-02   -4.3511294888295103E-02    4.8725695251793421E-03    7.3239479993514364E-02 \
              -1.8204898413185792E-02   -1.8335948363156138E-02    2.8766714941923455E-02    6.9286717760004612E-02   -6.8664083224985961E-02 \
               1.6076670216227780E-02   -3.6883998944036663E-02   -5.9970860510378176E-03   -6.4531303212895061E-02   -5.1542696854239313E-04 \
              -2.1338884474101687E-02    4.0440625190216357E-02    3.0504406938356963E-02   -2.8722753404582382E-02   -1.5516376448278876E-02 \
              -2.0097645879904820E-02   -1.1834187898322707E-02    1.5989730150470331E-02    3.3953905268039375E-02   -5.4314396077747469E-03 \
               5.5781685026027913E-02   -5.2487786195080906E-03    2.9481216186134165E-02   -2.9180551136018286E-02    2.1100954468209709E-02 \
               5.8208468503007621E-02    4.1466444969996880E-02   -3.8201738773952831E-02   -8.5313970950320894E-03    1.9743657256519803E-02 \
              -1.0360089700628712E-02   -2.5575063107584374E-02   -2.0675001642554507E-03   -3.9331138417093021E-02    1.5897575702668885E-02 \
               4.5337274831349665E-03    1.4424637694131371E-03   -5.3019497413904302E-03   -2.7794127088950579E-04   -7.1981325502640928E-02 \
              -1.3265173590317328E-02    2.2962948529166027E-02   -3.5120533223637826E-02   -3.9169527852941435E-02    6.9782892192330592E-03 \
               4.6792534167491434E-02    1.1724072420290102E-02    7.2541664208023941E-03   -9.0282830572793269E-03    2.6762323122281197E-02 \
               1.7016528482021016E-02   -5.4172072856201008E-02    1.5601225067545721E-02    2.4814638733191095E-02   -3.2584705960006025E-02 \
              -1.7044913434521016E-03    2.0517032255889626E-02   -1.0584908035803958E-03   -8.1282838835676030E-04   -3.5069425018809851E-02 \
               6.2977161692447173E-03   -4.1040412911548842E-02   -3.1471850913976716E-02   -1.6277774239962236E-02    3.9469473590061782E-02 \
              -2.9346242391827579E-02   -1.4443881448240093E-02    7.8334596192892285E-03   -4.1261605635924396E-02   -1.3853600037603764E-02 \
               1.4242393088361482E-02   -1.4486107901385572E-02   -4.5186629208631762E-03    9.7959107913158178E-02    3.7694745455215527E-02 \
               8.7670369360437993E-04   -5.9845141747472123E-02    1.8614825209481881E-02    5.1868928496554695E-02    3.7386478636878863E-02 \
              -7.2983005952815705E-02    5.1500056994190593E-02   -5.5949504476753301E-02    3.6796213640134176E-02   -6.3829845865489808E-03 \
              -5.3872449901984564E-03    1.2259018660211690E-04    2.7385893465052519E-02    4.3904687506271356E-02   -1.6624647707853352E-02 \
               3.9736839434893520E-02    4.1139690018089710E-02   -4.8748846743377275E-02   -1.7922470565497953E-02    5.2004003247236759E-02 \
               4.8722302622608807E-02    2.7844164006723768E-02   -9.7384905492371845E-02   -2.0906274233621944E-02   -1.7324439148709112E-03 \
               1.2516433637213321E-02   -9.2029892553796653E-03    3.3900698752050096E-02   -7.8996876250786455E-02    4.3126595142229045E-02 \
              -7.8312632984788202E-02    2.8036117980124883E-02   -7.8057468070018756E-03   -5.2591759282116332E-02   -7.8227901728925074E-04 \
              -3.8621189467855511E-02   -1.2848317795632103E-02    2.3947088736963457E-02    2.9298143331974200E-02    8.3213645238044143E-03 \
              -2.6509765374543221E-03    2.4233255601061460E-02   -6.1837791352321356E-02    5.2561430174761850E-02   -3.2142068647500709E-02 \
               1.0791003720473643E-02    1.9558342552910616E-02   -1.9428508996735250E-02    2.1612304405649308E-02   -5.4244982122351598E-03 \
              -3.6581561834730825E-02    1.5147394054050585E-02    1.0228667482697785E-02   -3.6333781398845570E-02   -7.3492975652316925E-03 \
               1.5660931260981531E-02    6.4983658511966927E-02   -2.4057474788015978E-02   -2.9443440317952842E-02    8.8666247536514989E-03 \
              -2.3068480329033695E-02    4.0935911369928905E-02   -1.7139711401918931E-02    4.1427815805970790E-02   -3.6553834545504774E-02 \
              -5.3109427285356524E-02   -3.9916210775513404E-02    2.3805504748684394E-02   -1.2033226131771720E-02    6.3178456894676625E-03 \
               4.1762400989797076E-02   -5.4272201374069490E-02   -3.7784630153611630E-02   -1.9208640364690416E-02   -4.1961208467134657E-02 \
               2.4528579284014543E-02   -3.3111970467192227E-02    5.1121301431250252E-02    5.8003421241862438E-03   -5.4148550931587304E-03 \
              -1.4028497977147921E-02   -2.0877490060024003E-03    6.8306883568007390E-02    3.9961040362394208E-02   -3.8904340234322987E-02 \
              -1.2043545875925135E-02    3.5336750217750942E-02    3.3872601782950949E-02   -4.0350575389427514E-03    6.2042009754918357E-03 \
              -7.9410509978842525E-03   -3.5308382337972781E-02   -1.9559423284321479E-02    3.3073153201644938E-02   -8.1979912213341905E-03 \
               2.1922768710065217E-02   -2.3845668067869175E-03    1.8305806547715818E-02    5.4422231237059727E-02    5.7300253414729737E-03 \
              -5.7275224095160076E-03    7.8666139013968128E-03    8.7401518925375454E-03    5.7610455721679943E-02    2.4930195481733062E-02 \
               2.9821561482621134E-02    2.0543533843198385E-02    6.4458984887573977E-03    7.4540800313154146E-02   -7.7335248913325064E-03 \
               1.4862154719861756E-02   -1.8086152975749968E-02    5.8910777879951727E-02    1.9836165342164220E-02    4.2319946842083622E-04 \
               2.6995990212021929E-02   -7.1742136052506469E-03   -4.1240232351634307E-02   -5.3581540380150706E-02   -1.8943785913826894E-02 \
              -2.5776531377390593E-02   -3.2645427922899956E-02    2.4199881457443737E-03   -1.4548718745006361E-02    8.7526093754671820E-04 \
               4.2910582895532888E-03    1.1359405587399708E-02   -5.4300428052263795E-02   -2.7474062148714964E-02   -2.6697156146123797E-02 \
               2.0028273536545727E-02   -1.5514826228595917E-02    3.4554820868043609E-02    3.1818220522436204E-03   -2.3954938236290396E-02 \
              -7.0208872915855976E-03    3.8928652867257926E-02    5.8942255604162205E-02   -7.4382138879757850E-02    3.5534442180895701E-02 \
               2.4085812033118596E-02    6.5041229814953496E-03   -1.9860566371596847E-02   -3.6398487212419957E-02   -1.0164947795827547E-02 \
              -4.4901861438044061E-02   -5.1152083248287780E-02   -1.8542297025940655E-02   -2.0951869629020410E-02   -4.2868936510356420E-02 \
               6.1439725846281275E-02   -1.9268983753092953E-02   -7.3212988351325212E-02    4.9328017240014600E-02   -6.8189728214493339E-05 \
               5.0047964925804260E-02   -2.8524712076848719E-02   -2.6236565888801938E-02   -4.9200347722380806E-02   -9.8256782597908152E-04 \
               1.2378509594450978E-04   -9.2969698923157276E-02   -7.6943720967424601E-03    1.7882803867583917E-02   -3.7624097745601132E-02 \
               5.5064542690518858E-03    8.4712432259405168E-02    4.5208986348414578E-03    2.9958458917758633E-02   -2.2064017997019136E-02 \
               3.0768462301145973E-02    3.9979216987106436E-02    3.6286885712584348E-03    2.6683793470886480E-02   -2.9898077003069078E-02 \
              -3.7309804728525450E-02    3.3849068286789102E-02    1.9066424713213227E-02   -4.8782054780041113E-02   -6.4272833215440160E-03 \
              -3.9672925705894493E-02   -4.6903004863305710E-02   -4.0007169603905483E-02   -5.1677190766370562E-02    4.1486810568381882E-02 \
              -7.1115857082397070E-04   -3.0534573992631367E-03    4.1606283043030615E-03   -5.5463941349045177E-03    5.6175708371324446E-03 \
              -1.4981071791420998E-02    4.8350202527190078E-03   -4.3017293238458841E-02   -4.3287737950983035E-02   -2.6127268448192326E-02 \
              -1.2081489137815589E-03    1.4060927355456563E-02   -2.0561548888805667E-02   -4.1210832890983568E-02   -5.3907970255462116E-02 \
               2.3972512459206363E-03    4.2907791317981066E-02   -1.8528706888032490E-02    9.8763948050821546E-02   -3.4997192183905201E-04 \
              -5.7915071309917153E-03   -1.7747460777747741E-02    3.4848972803455863E-02    4.6162273292567148E-02    3.2560320213969755E-02 \
              -3.7909239282042102E-02   -3.8607895461709008E-02   -5.8243169340078671E-02   -4.0730066679568588E-03    7.1126131354652705E-02 \
               1.1401165872320058E-02    4.6596169613000255E-02    3.5620884440824498E-03    3.6660913154385515E-02    1.8613337163090494E-03 \
              -2.8510557690938812E-02    2.9704659614227469E-02   -3.8293616606169735E-02   -1.4872842756899507E-02    2.7642921618468055E-02 \
               9.1475078441551234E-03   -2.6515525347102230E-02    2.5756973332831584E-02   -2.4858542573263677E-02    4.0094837493931827E-02 \
              -2.7364643069359499E-04   -1.2248376800449297E-02    1.0485192342514318E-02    3.2201129734952573E-03   -1.2929708597567894E-02 \
              -6.1559711719711870E-02   -2.6260368015513270E-02   -1.6617628470670220E-02    1.6259753841187174E-02    1.4631083334753384E-02 \
              -1.8584019062063153E-02   -3.3026509211794883E-02    4.2773615628587537E-02    1.2941089595310481E-02    1.4095449214957664E-01 \
              -2.6464200148926847E-02   -7.8208994284109292E-03    4.9077609516177456E-02   -2.4554476403644446E-02    4.6753050705346945E-02 \
               4.0868089134683441E-02    2.1570391523055715E-02    1.1708756653046054E-02   -9.2653024684126069E-03    7.9616215373606771E-03 \
               3.8901744662888142E-02    4.4982449483093857E-02    5.0464074754321034E-02   -4.3969610264835410E-02   -1.2076505775391324E-02 \
               3.8661926126541533E-02    7.2272593402689339E-04   -3.7900782201713536E-02    7.1789349291821406E-03    1.8846936216620824E-02 \
               1.4582114189929636E-02    2.9377743288503663E-02   -8.5585316284828974E-02   -8.0404482639616776E-02    1.2566571755642783E-02 \
               5.9299449063532850E-02   -1.3497321315783880E-02    8.4500715806303558E-04   -4.7547454786706252E-02    6.2438862375995982E-02 \
               1.9314088921419496E-02   -2.7512922772048254E-02   -8.0170628050390289E-04   -7.8575688900231630E-02    5.7164368364404888E-02 \
               2.3327465457536598E-02   -2.0169640322399828E-03    8.3300278257445473E-02   -1.2715128054154940E-02    1.6826650943281670E-02 \
              -2.9060055567431835E-02    5.1909017190889997E-03   -5.8432624822967565E-02   -4.2020439139163583E-02    3.7547754795500578E-02 \
              -1.4405551843604019E-02    6.0060583246443477E-02   -4.4264504412051299E-02    1.3229765829907833E-03   -1.0215817710506631E-01 \
              -8.7069754937052227E-02    1.6163074696082046E-02   -5.7733225150546422E-03   -5.5109903259370666E-02   -4.9438910472703441E-02 \
               3.6755939755817604E-02    5.6464781844840963E-03   -6.6473211424938922E-02    7.0726001463960422E-02    3.5909072692030163E-04 \
              -2.6444648454260377E-02    1.0485604351831074E-02   -3.3084505408466354E-03    4.6126511062290154E-02    3.0723957847957336E-02 \
              -5.1553324326342229E-02   -6.5525807204876042E-03   -3.7537713890644205E-02    6.2559880985967459E-02    1.7455435640496831E-02 \
              -4.0219903248848103E-02   -5.2312909292048348E-02    4.3642946354428509E-02    3.1229855387691172E-02   -1.0384474678590170E-02 \
              -2.3319188469209228E-02   -5.6064458368240956E-02   -3.1932414857007790E-02    5.7318717097107801E-03   -1.4617662901653313E-02 \
              -1.0617963229675178E-02   -3.2136375350395180E-02    1.7920527085443786E-02    3.4835334695417185E-03    3.0574653969920419E-02 \
              -2.2229600968582466E-02    3.9450605687025722E-03   -3.4681555558865096E-02    3.3231793636997034E-02   -2.9520130886984269E-02 \
               4.6595271213921104E-02    9.9585540013874228E-03    1.8527219856165518E-02    2.4179476051018712E-02   -6.9220359875200119E-03 \
              -4.8948133462294714E-02    4.8569760677050343E-02    6.5887823085376386E-03   -9.3579602126511816E-03    1.1284934015625209E-02 \
              -2.2886902761862338E-02    4.5389292293422784E-02   -1.2990677968474307E-02   -5.1268656047501963E-02   -3.0300741961592131E-02 \
               2.9664806257138879E-03   -2.5322299571799652E-02    5.8014205656537587E-02    6.2243538840592886E-03    2.7260002948114537E-02 \
              -2.7241676059202902E-02    1.7735418448478191E-02    4.8383072578584332E-02    5.5134029263422275E-03   -6.1167859740770517E-04 \
               2.5069158607969499E-02    2.8932803235459718E-02   -2.5264209759477727E-02    2.8281606975700146E-02   -4.4202594372565066E-04 \
               1.6670098583682784E-02   -3.2166039975547622E-02   -1.7641412847059633E-02    9.8988297875238686E-03    1.5983355412961524E-02 \
              -7.7884062987938082E-02    2.8208342776951663E-03    6.1002548646846020E-03    6.8838354462158677E-02   -1.7986905706571542E-02 \
              -2.0409466864984641E-02   -2.0409311718054452E-02   -2.1978098160589994E-02   -3.1730178313763638E-02   -9.8273413283123338E-03 \
              -2.4548631913028987E-02   -7.1717831895002091E-03   -1.4047625333802237E-02    2.4013301863374355E-02   -5.1929673945729574E-03 \
               1.2359562380330400E-02    1.8375816750974949E-02    7.0682303982227742E-03    4.5018938004950486E-02   -1.5748803740902092E-02 \
              -8.7688637967818523E-03    3.8910578041236731E-02   -4.7754337466544535E-03    2.2989952540091542E-02   -1.2748580915755662E-03 \
              -2.3189463110492668E-02    5.0217324117630142E-02    3.2030259749205751E-02    1.5345447004514231E-03   -3.0633886757719504E-02 \
               6.7300776326954345E-02   -3.3822770455407922E-02    2.7433085568767779E-02    2.3617803326861777E-02    2.7988055420977664E-02 \
               7.8507258761809084E-03   -4.3907961577705344E-02    3.5690018466420677E-02   -4.7232279064462462E-03   -4.0958840540618054E-02 \
               1.0084494910164134E-02   -1.9249035450820341E-02    1.1841421559836564E-02   -8.2823905493014972E-03    1.3536102523709913E-02 \
              -3.9388526778659144E-02   -2.7948053431469727E-03   -5.3129700259980824E-02   -5.1615053236921324E-02    3.7817576799088079E-02 \
              -6.1648276625121310E-04   -3.8361607767242044E-03    2.8205439015556510E-02   -1.2625753275898267E-03    4.9795917316615649E-03 \
              -5.9359532017430085E-03   -1.8309562373289009E-02   -4.0177094223537699E-02    1.7325750259310709E-02   -2.3419296748012981E-03 \
              -4.9182431814434921E-02   -7.1717318314828749E-02   -4.4257573144756014E-02    1.8669796949861258E-02   -6.0699288091798517E-02 \
               9.1312149500455981E-03   -3.0906295894534554E-02   -1.4350261946721721E-02    2.5527403905213880E-02    1.4771751562243914E-02 \
               2.1558100159030390E-02    6.0257883867358031E-02    5.3842117161581694E-02    1.5335309598681533E-02   -2.8922224911867647E-02 \
              -1.0594438886106627E-02   -2.3360702603306985E-02    5.7631911630791843E-02    4.0342993658405617E-03    4.9491202193028501E-02 \
               1.1994208960505537E-02   -2.4671080038734584E-03    4.2333436601654499E-02    1.1160943169804855E-02   -1.0135625500841142E-02 \
               1.6519452083675258E-02    7.1709471536089781E-02    1.5158614309895681E-03    1.9271521812430432E-02   -3.8944908025689588E-03 \
              -1.2480754092366935E-02   -2.8005696982044449E-02   -2.3132654588790259E-02    5.2155199135803847E-02   -2.4562406964680854E-02 \
              -7.4411107071371843E-02    5.7987373405713485E-02    2.0795210290984686E-02    1.1588356369191082E-02   -1.4575236313493658E-02 \
              -2.1068119676081971E-02    6.0788669794635654E-03    1.1177969924803067E-02    2.2098754506368352E-02    4.3039837487518266E-02 \
               2.3109359956197520E-02    9.9298118479480436E-03   -1.2708196008254570E-02   -3.2044084844547578E-02    2.3335549517685468E-02 \
               5.2001376517595739E-02    3.7836018347072106E-02   -2.1694634211470758E-02   -4.4072419658438541E-02   -2.6488791696669456E-02 \
               6.5969661040849087E-02   -1.3648600293223370E-02   -3.7155267130450899E-02    4.6813573899514585E-02   -2.8784425262914734E-02 \
              -7.8323094587921152E-02   -3.6036664279671109E-02   -7.3467287085570623E-03    1.3082746731691256E-03   -2.4128238217154496E-02 \
              -1.7021926450363361E-02    8.2884344755773595E-03   -1.9806149358964256E-02   -4.2410047675804141E-02   -1.9688541158939987E-02 \
               2.0789134585348585E-03    1.4464359513705186E-03    4.1140554313892096E-02   -5.5597553701503613E-02    5.6319423036772301E-03 \
              -1.3314145641191211E-02    7.4100374650447165E-02    3.3585296302910864E-02   -1.0724759202651570E-02   -1.8950449924146150E-02 \
               5.1719625961167734E-02   -1.1645334439718831E-02   -1.4446467176517996E-02   -4.2356476922186512E-02   -5.0949831986411162E-02 \
               2.0559945932088257E-02   -6.6938558208470078E-03   -1.1942035236866765E-03   -2.0848062057313009E-02   -2.0754183165377985E-02 \
               5.2353926991342364E-02   -1.8319867511433434E-02    4.5606337348184582E-02    8.7237605548612096E-03   -2.0391844832197272E-02 \
              -2.7613504552284854E-02    3.9028659299675139E-02   -1.9475353051803191E-02    3.5567643107898658E-02   -3.9195217950531006E-02 \
              -1.8796614943063998E-02   -1.1579474540980813E-02   -4.0204582387799635E-02   -4.0739830673816599E-03   -1.0121907026698282E-02 \
               3.6566015433973510E-02   -2.9728656112498347E-02   -2.1839717189652896E-02    3.0956921531410464E-03    4.3279035310190936E-02 \
              -8.9268711822826988E-03   -1.7809991940786411E-02   -3.3448899650804886E-02   -1.2565695591547387E-02   -4.6882322306361558E-02 \
              -1.1987794228889714E-02   -6.4978637015878235E-02   -3.4194178474811390E-02   -4.3859910265738655E-02   -3.4583670829624533E-02 \
               1.5432085670161280E-03    2.4800004618406622E-02    3.4087628639929246E-03   -5.5657366927849602E-02   -2.9050730747451933E-03 \
              -1.7195654579626452E-02    9.7677323360208609E-02   -1.8947664977675367E-02   -2.0115807609453640E-02   -2.0467094452563461E-02 \
               1.8303685062545608E-02   -4.4799493687362061E-03    9.1939740101438988E-02    1.9755077555293290E-02    5.3626101999309797E-02 \
              -5.1586402766850233E-02   -2.5501850898918293E-02   -2.1931942953363353E-02   -5.2944180667652836E-02    6.8904445549667112E-02 \
               2.6493951461443763E-02   -4.5408706369881972E-02    2.4519301605415520E-02   -6.3517630636521355E-02   -1.7307534294446644E-02 \
              -4.7898307312630633E-03    1.2706623637287402E-02   -1.8155744742439396E-02    3.9489074975402626E-02    1.0800761853075944E-02 \
              -3.5674185122601926E-02   -3.1180085553815764E-02   -4.9893461000323942E-03    4.5718207690168978E-03   -9.3024662194655799E-03 \
               2.3464058237883556E-02    8.9288989366457499E-03    9.1276126358329473E-03    4.3818766697864981E-04    3.6745939091863841E-02 \
               1.8628256303740331E-02   -5.6831836286470407E-02    6.3103138290693268E-03    4.7877195457141412E-02   -6.3287986874324869E-03 \
               2.5389894438742414E-02   -5.6392358209172867E-03    3.4947669070176844E-02   -3.8685634548206907E-02   -5.1870151116884755E-02 \
               1.3518488070850073E-02   -9.1557958485446785E-03   -2.0870272332874716E-02   -1.4950546728554602E-02    7.4920333510856809E-03 \
               1.2466824445818935E-02   -1.2802774602233438E-02   -5.8627328956692010E-02   -5.7298092134667925E-02   -7.3327877902262945E-03 \
               3.8179123449295139E-03   -3.6897024005703855E-02   -8.2281670966321385E-02    3.0693136460340762E-03    8.2155230044462797E-04 \
               3.5445443416329634E-03   -2.4575884079919789E-02   -1.7164376378496823E-02   -2.5272472228083820E-02   -9.4256527659686718E-03 \
               3.7837997847893462E-02    3.9836719603895544E-02   -1.8502872363444535E-02    3.0981207869413264E-02    3.0160343582788473E-02 \
               2.5208110490392089E-03   -2.6669682107450998E-03    1.1055717885544186E-02    3.1465771402836517E-03    1.2498152975304738E-02 \
              -1.6494908724853506E-02    2.1881823369063663E-02   -1.0341790189231282E-02    1.6112954624682520E-02    2.2021051145894605E-02 \
              -1.8976395997751600E-02    7.9504363585460834E-03    5.2839918531372952E-02    7.1539410515033611E-02   -2.9755394623691435E-03 \
              -3.9389590493611119E-02    2.3219974185341892E-02   -1.1911233909992757E-02   -2.3208133669826467E-02   -2.4500187563558887E-02 \
              -7.6761960693944198E-02   -1.2183609461881167E-02    3.6156152742296581E-03   -4.7356499676062043E-02   -2.7070523465585359E-03 \
               5.2181923069348338E-02   -6.5720565447918253E-02   -8.1424447771203140E-02    3.1138273779495653E-02   -1.1293387266045261E-02 \
               1.7116234584768117E-02   -1.4305644603380591E-02   -8.7611333214537377E-03
         &END COORD
         &VELOCITY
               2.5456690183416679E-05   -1.3412946375488209E-05   -4.2490281419440231E-06    6.9615262450667203E-06 \
              -6.8724528805710993E-06   -7.5912711045772909E-06   -4.2690626246701507E-06   -1.0992840170010785E-05   -1.4832372463228037E-05 \
               2.9389610437926664E-05   -1.9380157357657911E-05    1.0700639319716976E-05    2.7802256428371429E-05   -9.7816680037197967E-06 \
               3.5836019400361646E-06    9.2170488659341381E-06   -1.0482918566774634E-05    1.9467993093513381E-05    5.0225831298571746E-06 \
              -1.0653879313114974E-05    1.2006540454887667E-05   -2.3793981705888636E-05   -1.6939136123895137E-05   -1.0990504617633848E-05 \
              -1.6512128873062575E-05    1.4054271513645998E-05   -1.3721872502324055E-05   -3.2203051810866391E-06    2.9053531621276099E-05 \
              -7.9914805955449637E-06   -5.6200388025477842E-06    2.3650288768067498E-05   -9.0222464501265818E-06    9.6776489090481798E-06 \