 # Version information for this restart file 
 # current date 2022-05-24 22:45:35.443
 # current working dir /home/nick/Documents/gitlab/pymatgen/cp2k_simulations/ar108/output
 # Program compiled at                              Sun Mar 22 16:45:27 UTC 2020
 # Program compiled on                                           lcy01-amd64-017
 # Program compiled for                                    Linux-x86_64-gfortran
 # Source code revision number                                         svn:18464
 &GLOBAL
   PROJECT_NAME ar108
   RUN_TYPE  MD
 &END GLOBAL
 &MOTION
   &MD
     ENSEMBLE  NVT
     STEPS  100
     TIMESTEP     9.9999999999999989E-01
     STEP_START_VAL  40
     TIME_START_VAL     4.0000000000000021E+01
     ECONS_START_VAL    -2.2736367447489101E+03
     TEMPERATURE     1.0000000000000001E+02
     &THERMOSTAT
       REGION  MASSIVE
       &NOSE
         TIMECON     9.9999999999999989E+02
         &COORD
               3.9115886295055725E-02   -2.2078281097080918E-02   -5.9167624200298407E-03    1.2972137901524409E-02 \
              -9.7924878396905574E-03   -1.1064044858971424E-02   -8.2645727075455755E-03   -1.6229228299441029E-02   -2.3221018065032958E-02 \
               4.8590965539314745E-02   -3.3400189893043872E-02    1.8220603411629448E-02    4.5589501852462695E-02   -1.6784295846944221E-02 \
               7.2535379641785894E-03    1.5532293719138690E-02   -1.6527903326285689E-02    3.3507737754843010E-02    3.7240641148827617E-03 \
              -1.6405727411764326E-02    2.1166645117756903E-02   -3.6771093871472323E-02   -2.7360828072229906E-02   -1.7340330667302908E-02 \
              -2.7178458644061019E-02    2.3578798120919221E-02   -2.1639836100421053E-02   -4.5383533551384700E-03    4.8959690971687030E-02 \
              -1.3971755392581454E-02   -9.3550359368534935E-03    4.0033818418868876E-02   -1.4888849957328384E-02    1.7432473823988340E-02 \
              -7.5738953207459868E-03    3.0436765662406651E-02    3.0277456846035199E-04    9.0820977169451134E-03   -2.8294429663032930E-02 \
              -1.4966662315926176E-02   -5.4025855001905111E-03    2.2376785753500085E-02   -1.8977678077874295E-03    4.3028738021305038E-02 \
               2.4232888621917776E-03    4.6339435081469468E-02    1.5473230630596963E-02    7.7804007045386599E-03   -1.6656735214317579E-03 \
              -3.4588331005916531E-02    2.7894286945824558E-02   -5.6866978062154409E-03    9.9360687418758448E-03    9.5458192065420566E-03 \
               1.5222983395347486E-02    6.9565988663262371E-04   -4.5461699682406934E-03   -1.6052097498763601E-02    2.1582056599279611E-02 \
               1.2391628271264513E-02    1.3897650010657965E-02   -2.6648278317052895E-03    5.0237837915448884E-02   -2.7461393803933455E-02 \
               8.4482529123217781E-04   -9.8538228419429250E-03    3.5049719852393517E-02    1.2800544692554796E-03   -1.3251570260997091E-02 \
              -6.6559742470338190E-02   -3.9382763360343047E-03    4.1734336269312923E-03   -2.4541487027504333E-02    1.9721695886766474E-02 \
              -1.4693430116601267E-02    3.4995384734936630E-02    2.4357349455577545E-02    3.2032213409378923E-02    1.2898275289894911E-02 \
              -3.6293273868551440E-02    1.2589876688117495E-02    9.8037129465177748E-03    1.4840747780008800E-03    1.0052307838862057E-03 \
              -4.0271901768179845E-02   -4.6771654625942898E-03    1.4961828809385043E-02   -2.8492455250229368E-02    1.3436208348591840E-03 \
              -8.9834799700908227E-03   -1.9351158555400555E-03    3.0362675322027122E-02    2.3014923282888875E-02   -1.6639319551119150E-02 \
               1.4247505836085559E-02    2.4733361208499557E-02    4.8291703072256283E-02    2.7927697770635904E-02    2.9627984816023457E-02 \
               8.0554904118187599E-03   -2.2811368893209297E-02   -1.7070027452257920E-02    4.5710906755951512E-02    1.8182105999361094E-02 \
              -1.5730100318875801E-02   -3.0492244284376673E-02   -2.5921547116902206E-02    4.4391342360676203E-03   -4.1102192282926601E-02 \
               2.0764551425679911E-02   -1.0641693648590874E-02   -1.1421224589363786E-02    4.2570276467550135E-02    1.3830998776997207E-02 \
               7.2575351615737085E-04   -7.3821538598668824E-03   -8.9704374303918751E-04   -3.5483170747442581E-02   -8.3030088160056302E-04 \
               3.4296027584479142E-03    4.5016112044737070E-03    3.0126430483634614E-03   -3.8395614164928066E-02   -8.4898064361712978E-03 \
              -2.6087087620920067E-02   -1.2986609103407104E-02   -1.3700697518058658E-02   -1.1449355752938888E-02   -9.6612632533682446E-03 \
               6.2011866833954028E-03   -1.5370122999354772E-02   -2.0783817430362044E-03   -3.9556217242168630E-02   -3.9294539835271550E-02 \
              -1.0439301251160534E-03   -6.8689568207609044E-03   -1.2827770372865227E-02   -2.3449532288439476E-02    1.4626976846781430E-02 \
               6.1914873307561003E-03   -4.9310435727664782E-02    1.0889487132537295E-02    3.5131298754702341E-02    4.7219764416912835E-04 \
              -3.7267762146639828E-02   -5.7683156863518343E-03   -9.1226999822153609E-03    1.5364890502551557E-02   -1.2047012796700835E-02 \
               7.8174591351271860E-03    1.3808077277893039E-02   -1.5714850502510547E-03   -1.2249718868586846E-03    2.7819195507286280E-02 \
              -2.4081477496397812E-02    2.7859478697136082E-02    1.2061067791551586E-02    4.9638828318620432E-02    2.5475653533801278E-02 \
               1.2075053265617152E-03    2.4148754365733620E-03    5.3096739457499367E-03   -3.7423996816269581E-02   -6.6086718552346322E-03 \
              -4.1004774629923559E-02   -2.0707420718492658E-02   -2.2917656160603941E-02   -4.9198242054465441E-03    2.9454513229456782E-02 \
              -4.9477946017239104E-03   -1.3166023893874003E-02    4.3712926010319293E-02   -1.0452505213924480E-02    3.2224057199041249E-02 \
               6.7264460074628295E-03   -3.2663397573163108E-03    3.3244451243527297E-02    1.2915332850334183E-02   -1.1316319850132213E-02 \
              -9.0373512922690899E-03   -1.0772904332075740E-02    1.6168973998077450E-02    2.6091468516728635E-02    1.2023907018798938E-02 \
              -2.6517898026368326E-02    3.4216993538595674E-03   -4.9424684931800560E-03    3.9257873801559580E-03   -9.2144956337675641E-03 \
               2.4012169002685733E-02   -1.9381906242157753E-02    1.9068281458432958E-02   -2.0690176088763033E-02    2.2399906389248603E-02 \
              -3.2917669135509996E-02    4.3282353631836600E-03   -2.0337722613245783E-02    3.1965794380062751E-02   -1.6118884303388658E-02 \
               1.7734764081721276E-02    3.0179965146766401E-02    3.0251871094984832E-02    1.7007855570379791E-02    3.8654888025017549E-02 \
               1.1984662394043848E-02    5.3542858182155598E-03    4.1543096307636758E-03    2.3475133049571481E-02    7.2202820897853161E-03 \
              -5.6440217090414205E-02    1.8269803310008492E-02    2.1856980906545181E-02    5.3897227608754712E-02   -2.5807834962056934E-03 \
              -2.2941978007882786E-02   -1.2463740621992179E-02    1.6427762328323065E-02   -4.2427991975054861E-02    1.6525687106970770E-02 \
              -1.5953074532927190E-02    3.4138177894808407E-02   -1.8976962521176078E-02   -2.1295282446447430E-02   -1.4951605749908970E-02 \
              -1.1431738703341928E-02   -1.9433414078636531E-02   -4.4742882234651365E-02   -8.2603848973348982E-03   -1.9598476561108604E-02 \
              -3.5069503611994776E-02    4.4582571515311448E-02   -1.4299622672427145E-02    1.6692060310633820E-03   -3.5408554758206721E-02 \
               8.4379045412980146E-03   -7.9943114891487237E-03   -2.8626035993668076E-02    3.6755268815510502E-03    4.9076768886749125E-02 \
              -1.2330661663638545E-02   -1.2203326955397614E-02    1.9759081646204997E-02    4.6500976113481987E-02   -4.5976125500795051E-02 \
               1.0529425486571093E-02   -2.4218412431169886E-02   -3.8337038717792195E-03   -4.2621455683693903E-02   -4.0926368462402711E-04 \
              -1.4357839297922935E-02    2.7446125735845678E-02    2.0556669939919586E-02   -2.0686978888540732E-02   -9.9950006342889239E-03 \
              -1.3025763662218566E-02   -8.3922916169477564E-03    1.1104031788560662E-02    2.3008242043927266E-02   -3.3249987772090810E-03 \
               3.7551787176497251E-02   -3.4427073656045038E-03    1.9885702905120716E-02   -1.9217772000318580E-02    1.4371925450972446E-02 \
               3.9429914714129960E-02    2.7494684572498124E-02   -2.5259680471738835E-02   -5.8825587692144209E-03    1.3531695988725865E-02 \
              -6.5492858223906809E-03   -1.6676299358375144E-02   -1.0422492625103287E-03   -2.5821358696532064E-02    1.0904768602462651E-02 \
               3.3956031868414911E-03    1.3594872694161913E-03   -5.2304877361360408E-03    2.1523102808811820E-04   -4.7587636830620651E-02 \
              -8.5918061215801977E-03    1.5599228490089094E-02   -2.3071566875023413E-02   -2.5774095116184122E-02    4.9155996198372099E-03 \
               3.1589799454172583E-02    8.1946290022932283E-03    5.2140915899562806E-03   -5.6244600279457616E-03    1.8212362444314845E-02 \
               1.1563784064823229E-02   -3.5746512529827482E-02    1.0201055025320763E-02    1.6825736759636643E-02   -2.1390803884349850E-02 \
              -1.2929114182151766E-03    1.4074991811277813E-02   -3.5158788121752624E-04   -4.1830018148504816E-04   -2.3003808699424432E-02 \
               4.4603128455788198E-03   -2.6997568771326152E-02   -2.0711983385556982E-02   -1.0562895800515854E-02    2.6238131873159851E-02 \
              -1.9289319937017962E-02   -9.3258613289562177E-03    5.5785752453504532E-03   -2.7049879458376936E-02   -9.0270515649088067E-03 \
               9.6084157620959891E-03   -9.2721659844625121E-03   -2.6364336287008094E-03    6.5793372478818779E-02    2.4469950281741305E-02 \
               8.2350695170534973E-04   -4.0299946968811090E-02    1.2519466527743509E-02    3.4940979445214085E-02    2.4517110049891933E-02 \
              -4.8830061614253809E-02    3.4142829409356659E-02   -3.7661369801610708E-02    2.4558354480020923E-02   -4.0057005136861223E-03 \
              -3.8256633590230899E-03    4.7831362738852537E-04    1.8657200410103447E-02    2.9080473383174956E-02   -1.0970758943895199E-02 \
               2.6860294780188244E-02    2.7082984768149045E-02   -3.2192220316076589E-02   -1.1814103053624098E-02    3.4563375325022232E-02 \
               3.2729675603942104E-02    1.8700384864324422E-02   -6.5171629297634676E-02   -1.4583393553090572E-02   -8.0215014342171370E-04 \
               8.7165672973278235E-03   -5.7873314104801270E-03    2.2990649440596710E-02   -5.3028256429120700E-02    2.8082678204978891E-02 \
              -5.2018462263563173E-02    1.8990813773571528E-02   -4.8434773080567265E-03   -3.4668295766515464E-02   -3.1521813970542933E-04 \
              -2.5291534352569204E-02   -8.3332965963357278E-03    1.6416579046622661E-02    1.9895984061733173E-02    5.8533180144820689E-03 \
              -1.5089846526960321E-03    1.6388494269994943E-02   -4.0889844675523646E-02    3.4751369547349614E-02   -2.1374814647660969E-02 \
               7.4789903806484212E-03    1.1993410133598432E-02   -1.2644201742319294E-02    1.4765522327784612E-02   -3.2580802213569358E-03 \
              -2.4052544611404651E-02    1.0348163786342086E-02    5.7218674531420389E-03   -2.3805909423655205E-02   -4.6479865155977093E-03 \
               1.0715489606873232E-02    4.3522271600464686E-02   -1.6106147860107584E-02   -1.9716647139822258E-02    6.1923686479052028E-03 \
              -1.4987480918884275E-02    2.7597615590229607E-02   -1.1290135509997504E-02    2.7985654651001154E-02   -2.3996481582993587E-02 \
              -3.4919652231075814E-02   -2.6527187487873850E-02    1.4784618947600258E-02   -7.6987141313244953E-03    4.5953045442448650E-03 \
               2.7108147646493146E-02   -3.5747971981579148E-02   -2.5119811404078991E-02   -1.2340281633225503E-02   -2.7730387819623937E-02 \
               1.6555558816076277E-02   -2.3338793135036392E-02    3.4395830617647373E-02    3.9780992417217421E-03   -3.2292150107126757E-03 \
              -8.9522053148335008E-03   -1.0143883271574654E-03    4.6129057346718384E-02    2.6352631417602419E-02   -2.5715077152732954E-02 \
              -7.9317530427755519E-03    2.4073257554006723E-02    2.2844948114034168E-02   -3.7214591433554641E-03    4.5289545094484374E-03 \
              -4.8981065563762803E-03   -2.3583760115381554E-02   -1.2849853537123600E-02    2.2405836854217192E-02   -5.2373032277236633E-03 \
               1.5001395944711091E-02   -1.2422238415568810E-03    1.2529921799036118E-02    3.6679380452803979E-02    3.8932564599527004E-03 \
              -3.4501568377674880E-03    5.6478239961940671E-03    6.2201802462456312E-03    3.8851042820514291E-02    1.6736257173544267E-02 \
               2.0212257308378907E-02    1.4019968013053909E-02    4.7026445353819503E-03    5.0089477192386683E-02   -5.3228604826011765E-03 \
               1.0271904475837899E-02   -1.1681434686177548E-02    3.9755814842538061E-02    1.3242319777868919E-02    6.3841088792884358E-04 \
               1.7641300194115635E-02   -4.4303612623175581E-03   -2.7099540070177300E-02   -3.6064237840636712E-02   -1.2491186890387564E-02 \
              -1.6824487511859519E-02   -2.1377614563162926E-02    1.8897532912158777E-03   -9.2997520160965370E-03    6.3729401871426750E-04 \
               3.2657577686561654E-03    7.9710169390562573E-03   -3.6953798363162149E-02   -1.8157370722681219E-02   -1.7482355932628878E-02 \
               1.3639349898903683E-02   -1.0046992971102764E-02    2.3409259298145163E-02    2.3130143909237924E-03   -1.5551663518312588E-02 \
              -4.3455247685589508E-03    2.4892234887793352E-02    3.9033295543701711E-02   -4.9575591912503096E-02    2.4180708859441066E-02 \
               1.6335701281635660E-02    4.6723107518556817E-03   -1.2763109006054256E-02   -2.3868681451053624E-02   -6.5255177414005354E-03 \
              -2.9332059342113883E-02   -3.3822583638866893E-02   -1.2253971541582701E-02   -1.3583832866634046E-02   -2.8521284782758335E-02 \
               4.1155324754886730E-02   -1.2587304009387209E-02   -4.8852740569770285E-02    3.2690059992318325E-02    1.6396845679196302E-04 \
               3.3606747583266330E-02   -1.8893468947995689E-02   -1.7197373523567861E-02   -3.2471960485250577E-02   -5.2586747271453425E-04 \
               4.7888083378261689E-04   -6.1503020495052817E-02   -5.6951719873468672E-03    1.2232745302004756E-02   -2.4740251532723627E-02 \
               3.9122331491610518E-03    5.6650108308782664E-02    2.6334455687190409E-03    2.0369775240393968E-02   -1.4638687113227987E-02 \
               2.0993418361155172E-02    2.6949211641401138E-02    1.7193995289214972E-03    1.8098710149360549E-02   -1.9610282327518398E-02 \
              -2.5150743875359642E-02    2.2883294333400708E-02    1.2984786750120349E-02   -3.2307698924695052E-02   -4.1219195608868560E-03 \
              -2.6053338076292887E-02   -3.0681462679861979E-02   -2.6287431395330605E-02   -3.4231116214031861E-02    2.7765649072702979E-02 \
              -2.6477166339041358E-04   -1.6357288625528017E-03    2.8696889810799582E-03   -3.3028499656192708E-03    4.1413212052119480E-03 \
              -1.0464940421695037E-02    3.5768935617265045E-03   -2.8280660497446680E-02   -2.8344769494847863E-02   -1.7224922263247081E-02 \
              -4.8189824935007279E-04    9.5636918826401528E-03   -1.3233724811913587E-02   -2.7122011093442245E-02   -3.5887447799805294E-02 \
               1.6859813402062749E-03    2.9004576887099426E-02   -1.2393882679965633E-02    6.6204435215168736E-02   -9.1350454481096412E-04 \
              -4.2473333921798717E-03   -1.1504129689898083E-02    2.3596960692279755E-02    3.1320880396028455E-02    2.1735121324663022E-02 \
              -2.4990580716010211E-02   -2.5508999287449003E-02   -3.8569089043243125E-02   -2.6940045081811940E-03    4.7818673743132145E-02 \
               7.5006371472468251E-03    3.1449510669519315E-02    2.5488771803887202E-03    2.4846287868803031E-02    1.4931510146751102E-03 \
              -1.8732596018124863E-02    1.9985448397222463E-02   -2.5226508095805927E-02   -1.0518194530578210E-02    1.8832389461734118E-02 \
               6.4146009230599604E-03   -1.7603241026287922E-02    1.7421700789031765E-02   -1.6245378020269437E-02    2.7119762046732037E-02 \
               4.1243475097946944E-05   -7.7656197573148858E-03    7.2872460448790205E-03    2.5304564267954969E-03   -8.2208831171273339E-03 \
              -4.0468564149470171E-02   -1.7483022960189210E-02   -1.0755181892377006E-02    1.0710991507814781E-02    1.0094266514482534E-02 \
              -1.2012624494290296E-02   -2.1927863069512367E-02    2.8854948640867403E-02    8.8257049078505935E-03    9.3740978563948377E-02 \
              -1.9432954920762430E-02   -4.8878987982522073E-03    3.2983462533151042E-02   -1.6362963478560245E-02    3.1501726780295260E-02 \
               2.7712957657855853E-02    1.4624154496277929E-02    8.1546740353154925E-03   -6.1381593324424952E-03    5.7315860646253384E-03 \
               2.6327760039408322E-02    3.0531982858413954E-02    3.3573655485067661E-02   -2.9196508712129907E-02   -7.9835483076399344E-03 \
               2.6160843447261210E-02    7.1734994962554372E-04   -2.4947691146712161E-02    5.0395127363053018E-03    1.2959082805423430E-02 \
               8.8263349949586813E-03    1.9680386794898391E-02   -5.6752430800652086E-02   -5.3338434822013087E-02    8.1400912628735167E-03 \
               3.9915082790010548E-02   -8.7144894388313156E-03    9.3921412869193066E-04   -3.1298406294079463E-02    4.2132309559231418E-02 \
               1.2786703915649662E-02   -1.7983636897114557E-02   -2.7529916975534943E-04   -5.2483958309925104E-02    3.7824375533697385E-02 \
               1.5887859794797312E-02   -1.0244263766983367E-03    5.5932951288314006E-02   -8.1229481786551806E-03    1.1545228640685112E-02 \
              -1.9004258384434515E-02    3.6420449063178702E-03   -3.8283473044653259E-02   -2.7997469535998652E-02    2.3737011658663314E-02 \
              -9.4630608227231159E-03    4.0417033858477294E-02   -2.9187609383528164E-02    1.0488887836549471E-03   -6.7705632384051584E-02 \
              -5.8038050852392241E-02    1.0321510559575187E-02   -3.4788022053695599E-03   -3.6551337784631523E-02   -3.3099236581853035E-02 \
               2.4633122793953313E-02    3.1595640386565776E-03   -4.4441828499933528E-02    4.7060617004173799E-02   -7.7883977758068997E-04 \
              -1.7260747348599833E-02    7.3115637776799917E-03   -1.9148763191971258E-03    3.1305793030192597E-02    2.0648999930365605E-02 \
              -3.3957326043243044E-02   -4.2382311897279958E-03   -2.4630025205354508E-02    4.2227345116745925E-02    1.1526935017162116E-02 \
              -2.6447383114979649E-02   -3.5227732184467273E-02    2.9344742692189917E-02    2.1009410929013463E-02   -8.0557845450353778E-03 \
              -1.5009971539242165E-02   -3.7038172314958505E-02   -2.1676712099332994E-02    4.0996748674307811E-03   -9.3486201361788028E-03 \
              -7.9098524430363231E-03   -2.1099700015009108E-02    1.2231095023014034E-02    2.3208737900057303E-03    2.0706181917902852E-02 \
              -1.4522545203744578E-02    2.9890325040626102E-03   -2.2850664323658187E-02    2.2419815759565465E-02   -1.9779549937954916E-02 \
               3.1418294615436736E-02    6.7995941979047125E-03    1.2734278975609005E-02    1.6463314574756017E-02   -4.2787859601740958E-03 \
              -3.2692196343230839E-02    3.2549264487618468E-02    4.5313138795083563E-03   -5.9395227680353931E-03    7.8848024719991860E-03 \
              -1.4871685529605333E-02    2.9913365836789212E-02   -8.4164626474662295E-03   -3.3798240257397284E-02   -1.9874364118585557E-02 \
               2.2664896205956196E-03   -1.6482448809562799E-02    3.9044826544870480E-02    4.1965084947971579E-03    1.8569051736025421E-02 \
              -1.7866554386013509E-02    1.2234142089383246E-02    3.2621202725844414E-02    4.0717728081434016E-03   -1.3160987956637370E-05 \
               1.7112638889462121E-02    1.9468583416157099E-02   -1.6614373669444158E-02    1.9182835384244496E-02    9.4144917692461998E-06 \
               1.1454068894808558E-02   -2.1074324114888719E-02   -1.1406042964577982E-02    6.9809677185381979E-03    1.1045051218639607E-02 \
              -5.1787774747745027E-02    1.6079122365275957E-03    4.4658387123941634E-03    4.5923574317136964E-02   -1.2076187159883008E-02 \
              -1.3242084779689595E-02   -1.3323278361691575E-02   -1.4220346267429476E-02   -2.0808245471110629E-02   -6.1463787859736040E-03 \
              -1.5956729381344247E-02   -4.4493302540995960E-03   -9.7286646791341306E-03    1.6373415108387687E-02   -3.1251362324350566E-03 \
               8.6613221907525899E-03    1.2648058232701041E-02    5.0753796833383508E-03    3.0132459428264303E-02   -1.0307998340049902E-02 \
              -5.4738047214178062E-03    2.6294211904269116E-02   -2.9626736869750379E-03    1.5723968862088305E-02   -2.0872328144723863E-03 \
              -1.5189949159352475E-02    3.3817737553733920E-02    2.1666878517559700E-02    1.3055483376189071E-03   -2.0022839434988872E-02 \
               4.4906951243872756E-02   -2.2754488872655802E-02    1.8562399094817477E-02    1.6065084209193323E-02    1.9021191390112144E-02 \
               5.5478492025179882E-03   -2.9712141923386833E-02    2.3961329532262061E-02   -2.8897390989022029E-03   -2.6969890368249795E-02 \
               6.9134328778725565E-03   -1.2443779814392094E-02    7.5215807533626743E-03   -5.1503845627207745E-03    9.4160432909471039E-03 \
              -2.5895398297557971E-02   -1.6198880306126959E-03   -3.5020770212148764E-02   -3.4396296339619589E-02    2.5312437760657867E-02 \
              -1.6945989906783852E-04   -2.1762347243292493E-03    1.9197411812054938E-02   -5.2892799346701005E-04    3.4774743064308433E-03 \
              -3.5472793668852838E-03   -1.1810627287263413E-02   -2.7340469255025944E-02    1.1768421657876262E-02   -1.1942685913498945E-03 \
              -3.2093900084085643E-02   -4.7330693198903755E-02   -2.9680647506353002E-02    1.2004356588661339E-02   -4.0167914220666137E-02 \
               6.0759956229291760E-03   -2.0311925746440637E-02   -9.3145543183457483E-03    1.7394947450529948E-02    7.8938882519643226E-03 \
               1.4885463200942821E-02    4.0521491973897969E-02    3.6339375983114174E-02    1.0254831585224101E-02   -1.8907589511924134E-02 \
              -7.0010287624054481E-03   -1.5336459036207539E-02    3.8759991536455027E-02    3.0736476388667799E-03    3.3457805825345695E-02 \
               8.1264649908893705E-03   -1.5995062975018891E-03    2.8673377226270370E-02    7.6435663286514169E-03   -7.3220710712947950E-03 \
               1.1531316596870728E-02    4.8176854496165669E-02    1.3806253852794187E-03    1.3238852403217649E-02   -2.2368155904904366E-03 \
              -8.9475320663048984E-03   -1.8213756744356352E-02   -1.5110381137174571E-02    3.4925982214440592E-02   -1.6071544699110020E-02 \
              -4.9275255376142572E-02    3.9155106212154178E-02    1.3919396391293913E-02    8.0776053561181331E-03   -9.7394812417114680E-03 \
              -1.3682794567423259E-02    4.4023615293801938E-03    7.7442143173244004E-03    1.5222964437866969E-02    2.9040088284143489E-02 \
               1.5666354513562145E-02    6.9470973341771393E-03   -8.0827749816154999E-03   -2.1531920126008262E-02    1.5976855344253388E-02 \
               3.5008112597863968E-02    2.5495041181999828E-02   -1.4113792694253974E-02   -2.9034759964413813E-02   -1.7488847300535463E-02 \
               4.4201883042550551E-02   -9.1810132598761883E-03   -2.4598227012884059E-02    3.1305089450752513E-02   -1.9032587601161600E-02 \
              -5.1514203601291948E-02   -2.4282655947874123E-02   -4.6412655686471471E-03   -6.0108499781252639E-04   -1.5640131852994978E-02 \
              -1.1013901904191683E-02    5.5680427180182460E-03   -1.2716777318510284E-02   -2.7918098598631574E-02   -1.2810313239173589E-02 \
               1.7424382148039576E-03    1.3638408291998993E-03    2.7560437218457461E-02   -3.6887253552940993E-02    3.8100939353453069E-03 \
              -1.0098024388442567E-02    5.0057803433258288E-02    2.2185256143136253E-02   -6.7768827887362895E-03   -1.2356205916331147E-02 \
               3.4839219292392490E-02   -7.3619903798271156E-03   -9.1772431181831038E-03   -2.7861644496424351E-02   -3.3741313103569370E-02 \
               1.3801316148195308E-02   -4.1092998300439323E-03   -3.9607292129708178E-04   -1.3449917935332911E-02   -1.3485524715426151E-02 \
               3.4827577113398053E-02   -1.2211457805563829E-02    3.0766928575663509E-02    6.1783862737143924E-03   -1.3139020306950340E-02 \
              -1.8056301171274571E-02    2.5142581379221884E-02   -1.2833253487012119E-02    2.4069227850989638E-02   -2.5827250694208995E-02 \
              -1.2278747696885953E-02   -7.3594722165891708E-03   -2.6386961277048347E-02   -2.4926727067546535E-03   -6.3499095677538794E-03 \
               2.3567541339191263E-02   -1.9497911466680937E-02   -1.4259170632375841E-02    1.9734201518501310E-03    2.9208441115597273E-02 \
              -5.7576983471585930E-03   -1.1419887385042083E-02   -2.1887916951617035E-02   -8.1030466730653110E-03   -3.0860977011635853E-02 \
              -7.7503662658153592E-03   -4.2935413535147370E-02   -2.2230544894531083E-02   -2.8802157362872342E-02   -2.2871766913671019E-02 \
               9.9941215392938148E-04    1.6941980241809530E-02    2.6052374200320840E-03   -3.8169635039708973E-02   -1.8696634195048557E-03 \
              -1.1064715761548249E-02    6.5312472954357506E-02   -1.3248192303974017E-02   -1.3049264338570142E-02   -1.3436885754322111E-02 \
               1.2546036117767445E-02   -2.6231977611928746E-03    6.1786376097478585E-02    1.2753871135169646E-02    3.6106294415746316E-02 \
              -3.5598925172808396E-02   -1.6827620903131058E-02   -1.4293909136360330E-02   -3.5316106320840368E-02    4.6227926255175383E-02 \
               1.7537286485572304E-02   -3.0188979343655324E-02    1.6343366273780913E-02   -4.2011877917776851E-02   -1.1251275225386020E-02 \
              -2.8339426608659586E-03    8.8682854579630946E-03   -1.1986521905107425E-02    2.6735880923458386E-02    7.4290006340378134E-03 \
              -2.3388043727041376E-02   -2.0511766927217425E-02   -3.0352606717085041E-03    2.9707400930007850E-03   -5.8285211256139781E-03 \
               1.6032644282292733E-02    6.2945500139977998E-03    6.4767585921622637E-03    6.8320053220753013E-04    2.3860672387552552E-02 \
               1.2547912080721552E-02   -3.7526149746338652E-02    3.3845190962324451E-03    3.2279008702295282E-02   -4.0719939360079858E-03 \
               1.7298099823053120E-02   -3.4525033138498762E-03    2.3694683653471948E-02   -2.5565026223592576E-02   -3.4426172031996632E-02 \
               9.1124461322292342E-03   -6.3789984219667492E-03   -1.3486840845385198E-02   -9.6164752643107046E-03    5.1914825479850140E-03 \
               8.6874819994456863E-03   -8.1519915418392479E-03   -3.8367496629167802E-02   -3.8138667233212326E-02   -4.8538976977010517E-03 \
               2.3915703627118167E-03   -2.3858460337288560E-02   -5.4608860827305310E-02    2.4202567542093807E-03    9.4702744786601253E-04 \
               2.7629245661764893E-03   -1.7006589505022717E-02   -1.1059407666491982E-02   -1.6481807387052693E-02   -5.9587894328449065E-03 \
               2.5780872928542815E-02    2.6801001001500784E-02   -1.2007562903463812E-02    2.1117961544065422E-02    2.0401800802633371E-02 \
               1.5529126399541047E-03   -1.3821254253900271E-03    7.7695051772659974E-03    2.2050171682603857E-03    8.7082933474264181E-03 \
              -1.0613499499158009E-02    1.4873941392006420E-02   -6.5655923186848757E-03    1.1129668258359871E-02    1.5033508446774393E-02 \
              -1.2320469356909967E-02    5.6595536068782893E-03    3.5631930056246618E-02    4.7762006042872895E-02   -2.1519696368680120E-03 \
              -2.6705944741730280E-02    1.5678582446223964E-02   -7.6002638933480790E-03   -1.5032131236529888E-02   -1.5782760957670162E-02 \
              -5.0842929099256480E-02   -9.4762010691621448E-03    2.7767017439780800E-03   -3.1172367763861085E-02   -1.7547793908139725E-03 \
               3.4805901804606229E-02   -4.3716147434399583E-02   -5.4312904487289280E-02    2.0383023849746284E-02   -7.2380057321752246E-03 \
               1.1475771977438499E-02   -9.1552235989784715E-03   -5.4641554859210994E-03
         &END COORD
         &VELOCITY
               2.4559328347648102E-05   -1.3401221086307430E-05   -3.9139351807062349E-06    7.4003058691374905E-06 \
              -6.3909079667973142E-06   -7.1438637311183705E-06   -4.5845480964696483E-06   -1.0395752753335371E-05   -1.4443163614378284E-05 \
               2.9396753039751711E-05   -1.9785403119640029E-05    1.0867346695996465E-05    2.7735884774190133E-05   -9.9667500779957331E-06 \
               3.9867618720539673E-06    9.2972499949990512E-06   -1.0238425717770432E-05    1.9863012173817458E-05    3.8523793096098146E-06 \
              -1.0292426449572391E-05    1.2399603315455504E-05   -2.2998524718152228E-05   -1.6756515580832236E-05   -1.0741483990279392E-05 \
              -1.6516412836998473E-05    1.4154225501247697E-05   -1.3402572136240809E-05   -2.9420302757161784E-06    2.9333940204307447E-05 \
              -8.2124161956560117E-06   -5.5548948246304719E-06    2.3931079074347966E-05   -9.0064604682878161E-06    1.0101497762710661E-05 \