 # Version information for this restart file 
 # current date 2022-05-22 21:13:36.407
 # current working dir /home/nick/Documents/gitlab/pymatgen/cp2k_simulations/h2/output
 # Program compiled at                              Sun Mar 22 16:45:27 UTC 2020
 # Program compiled on                                           lcy01-amd64-017
 # Program compiled for                                    Linux-x86_64-gfortran
 # Source code revision number                                         svn:18464
 &GLOBAL
   PROJECT_NAME h2
   RUN_TYPE  MD
 &END GLOBAL
 &MOTION
   &MD
     ENSEMBLE  NVT
     STEPS  100
     TIMESTEP     9.9999999999999989E-01
     STEP_START_VAL  100
     TIME_START_VAL     1.0000000000000007E+02
     ECONS_START_VAL    -8.9708950926403763E-01
     TEMPERATURE     1.0000000000000001E+02
     &THERMOSTAT
       REGION  MASSIVE
       &NOSE
         TIMECON     9.9999999999999989E+02
         &COORD
               1.2860252731741936E-01   -5.0530765024567582E-02   -1.6171912497181640E-02    1.0637552363016782E+00 \
               4.8977836591397872E-01    5.2372548426045155E-02    1.0730111944036760E+00    3.8682710014728988E-01   -7.6091988109301808E-03 \
               7.4206393345599442E-01    1.0194835548904120E-01    4.7307578729842002E-02    1.3068174787293635E-01   -3.7904542737127817E-02 \
               1.4180227423066401E-02    1.4050135381785323E-01   -3.5679819951070335E-02    7.5306895893044137E-02
         &END COORD
         &VELOCITY
               8.8103372933514182E-05   -1.0469244376435287E-05   -4.8201147993401733E-06    2.6708074984677907E-04 \
               2.9726976179911258E-04    9.5041565023489273E-05    4.2892238686186230E-04    3.6071409887763117E-04    7.6077918313311688E-05 \
               4.4732252607250153E-04    2.2721711485868183E-04    2.9931304714619729E-05    6.3512052876190742E-05   -7.3740886928094885E-06 \
               2.3863082685293459E-06    9.9012265009559023E-05   -2.8056190074540278E-06    1.7149477883937823E-05
         &END VELOCITY
         &MASS
               5.4124330775235652E+05    5.4124330775235652E+05    5.4124330775235652E+05    5.4124330775235652E+05 \
               5.4124330775235652E+05    5.4124330775235652E+05    5.4124330775235652E+05    5.4124330775235652E+05    5.4124330775235652E+05 \
               5.4124330775235652E+05    5.4124330775235652E+05    5.4124330775235652E+05    5.4124330775235652E+05    5.4124330775235652E+05 \
               5.4124330775235652E+05    5.4124330775235652E+05    5.4124330775235652E+05    5.4124330775235652E+05
         &END MASS
         &FORCE
               1.7781986192702985E-07    7.1771041837608287E-09   -4.7549506068752872E-10    2.6022732822419359E-08 \
               7.0747026800216715E-08    8.7784211141600071E-08    1.4432840278986245E-08    1.8338931381277605E-07    1.2952956099060044E-07 \
               4.1537679637066375E-08    1.9951234219338277E-07    5.1042517146202358E-08    3.0879753709993909E-08    3.4486807220469978E-09 \
              -5.3072295445162985E-10    4.8948854519357310E-11    9.2183284838220949E-09   -5.7722864048606334E-10
         &END FORCE
       &END NOSE
     &END THERMOSTAT
     &AVERAGES  T
       &RESTART_AVERAGES
         ITIMES_START  1
         AVECPU     6.8306205879998749E-02
         AVEHUGONIOT     0.0000000000000000E+00
         AVETEMP_BARO     0.0000000000000000E+00
         AVEPOT    -1.0022355449396845E+00
         AVEKIN     1.1148026716326231E-01
         AVETEMP     1.1734214037201749E+04
         AVEKIN_QM     0.0000000000000000E+00
         AVETEMP_QM     0.0000000000000000E+00
         AVEVOL     8.4354182288624986E+02
         AVECELL_A     9.4486306644282294E+00
         AVECELL_B     9.4486306644282294E+00
         AVECELL_C     9.4486306644282330E+00
         AVEALPHA     8.9999999999999972E+01
         AVEBETA     8.9999999999999972E+01
         AVEGAMMA     8.9999999999999972E+01
         AVE_ECONS     1.3581834530241353E+04
         AVE_PRESS     0.0000000000000000E+00
         AVE_PXX     0.0000000000000000E+00
       &END RESTART_AVERAGES
     &END AVERAGES
   &END MD
 &END MOTION
 &FORCE_EVAL
   METHOD  QS
   &DFT
     BASIS_SET_FILE_NAME BASIS_SET
     POTENTIAL_FILE_NAME GTH_POTENTIALS
     &SCF
       MAX_SCF  300
       EPS_SCF     9.9999999999999995E-08
       SCF_GUESS  ATOMIC
       &DIAGONALIZATION  T
         ALGORITHM  STANDARD
       &END DIAGONALIZATION
       &MIXING  T
         METHOD  BROYDEN_MIXING
         ALPHA     4.0000000000000002E-01
         NBUFFER  8
       &END MIXING
     &END SCF
     &QS
       EPS_DEFAULT     1.0000000000000000E-10
     &END QS
     &MGRID
       CUTOFF     1.0000000000000000E+02
       REL_CUTOFF     3.0000000000000000E+01
     &END MGRID
     &XC
       DENSITY_CUTOFF     1.0000000000000000E-10
       GRADIENT_CUTOFF     1.0000000000000000E-10
       TAU_CUTOFF     1.0000000000000000E-10
       &XC_FUNCTIONAL  NO_SHORTCUT
         &PADE  T
         &END PADE
       &END XC_FUNCTIONAL
     &END XC
   &END DFT
   &MM
     &FORCEFIELD
       &NONBONDED
         &LENNARD-JONES
           ATOMS H H
           EPSILON     3.1800000000000002E+00
           SIGMA     2.9279999999999999E+00
           RCUT     7.4000000000000004E+00
         &END LENNARD-JONES
       &END NONBONDED
       &CHARGE
         ATOM H
         CHARGE     1.0000000000000000E+00
       &END CHARGE
     &END FORCEFIELD
     &POISSON
       &EWALD
         EWALD_TYPE  NONE
       &END EWALD
     &END POISSON
   &END MM
   &SUBSYS
     &CELL
       A     5.0000000000000009E+00    0.0000000000000000E+00    0.0000000000000000E+00
       B     0.0000000000000000E+00    5.0000000000000009E+00    0.0000000000000000E+00
       C     0.0000000000000000E+00    0.0000000000000000E+00    5.0000000000000009E+00
       PERIODIC  XYZ
       MULTIPLE_UNIT_CELL  1 1 1
     &END CELL
     &COORD
H    3.2759093635727705E+00   -2.6807233667261992E+00    1.0213352660304365E+01
H    3.3462027415338413E+00    2.2155829140490737E+00    4.6816935377086484E+00
     &END COORD
     &VELOCITY
           7.2494046753933975E-03    2.7996492936525055E-03    2.1033137808142530E-03
          -3.5225518191077578E-03    3.0444702758216291E-03    4.3217564358644052E-04
     &END VELOCITY
     &KIND H
       BASIS_SET DZVP-GTH-PADE
       POTENTIAL GTH-PADE-q1
       &POTENTIAL
 1
  0.2000000000000000E+00 2 -0.4180236800000000E+01  0.7250748200000000E+00
 0
         # Potential name:  GTH-PADE-Q1  for symbol:  H
         # Potential read from the potential filename: GTH_POTENTIALS
       &END POTENTIAL
     &END KIND
     &TOPOLOGY
       NUMBER_OF_ATOMS  2
       MULTIPLE_UNIT_CELL  1 1 1
     &END TOPOLOGY
   &END SUBSYS
 &END FORCE_EVAL
