 # Version information for this restart file 
 # current date 2022-05-22 21:13:35.010
 # current working dir /home/nick/Documents/gitlab/pymatgen/cp2k_simulations/h2/output
 # Program compiled at                              Sun Mar 22 16:45:27 UTC 2020
 # Program compiled on                                           lcy01-amd64-017
 # Program compiled for                                    Linux-x86_64-gfortran
 # Source code revision number                                         svn:18464
 &GLOBAL
   PROJECT_NAME h2
   RUN_TYPE  MD
 &END GLOBAL
 &MOTION
   &MD
     ENSEMBLE  NVT
     STEPS  100
     TIMESTEP     9.9999999999999989E-01
     STEP_START_VAL  80
     TIME_START_VAL     8.0000000000000057E+01
     ECONS_START_VAL    -8.9708950926403763E-01
     TEMPERATURE     1.0000000000000001E+02
     &THERMOSTAT
       REGION  MASSIVE
       &NOSE
         TIMECON     9.9999999999999989E+02
         &COORD
               8.6851275815470363E-02   -4.0954805390636485E-02   -1.2342558454919168E-02    8.1843013060613257E-01 \
               2.6492479941756997E-01    7.7005916370317658E-04    7.1696925682781198E-01    1.4973805770748314E-01   -3.7130017612032155E-02 \
               3.9028018143755294E-01   -2.1211127980201139E-02    3.3137579430978011E-02    8.9500323736724188E-02   -3.0967482381083874E-02 \
               1.2029718238858825E-02    6.8282825676075423E-02   -3.0443840883901698E-02    6.0937515482562203E-02
         &END COORD
         &VELOCITY
               3.1312725652636010E-05   -1.2158645607834049E-05   -4.4474045132854549E-06    3.2252733323992624E-04 \
               2.3899923817930217E-04    3.4138689202420588E-05    4.0494459681034286E-04    2.1660084940905788E-04    7.0678623673188326E-06 \
               3.9302333608182968E-04    7.9745813816029719E-05    1.0541389658471689E-05    3.0189627160004378E-05   -9.0207264593337338E-06 \
               2.8116843458971637E-06    3.0389205290096561E-05   -8.9696833651060218E-06    1.7597040464646463E-05
         &END VELOCITY
         &MASS
               5.4124330775235652E+05    5.4124330775235652E+05    5.4124330775235652E+05    5.4124330775235652E+05 \
               5.4124330775235652E+05    5.4124330775235652E+05    5.4124330775235652E+05    5.4124330775235652E+05    5.4124330775235652E+05 \
               5.4124330775235652E+05    5.4124330775235652E+05    5.4124330775235652E+05    5.4124330775235652E+05    5.4124330775235652E+05 \
               5.4124330775235652E+05    5.4124330775235652E+05    5.4124330775235652E+05    5.4124330775235652E+05
         &END MASS
         &FORCE
               6.9408593968465075E-08    3.9538664929619843E-10   -4.3726747548414845E-10    2.8186298467783389E-09 \
               1.0343878054835738E-07    5.6535535711785759E-08   -2.0951213591239361E-10    1.6339502634739011E-07    4.6330827826224320E-08 \
               6.5166740838218683E-08    1.5388224256638979E-07    5.7742946826798254E-09    6.5590557804782946E-08    3.2631344955902339E-10 \
              -5.0372663264692694E-10    1.2045027992662342E-07    3.3840365966258197E-10   -5.0464491883079098E-10
         &END FORCE
       &END NOSE
     &END THERMOSTAT
     &AVERAGES  T
       &RESTART_AVERAGES
         ITIMES_START  1
         AVECPU     6.7914951162492784E-02
         AVEHUGONIOT     0.0000000000000000E+00
         AVETEMP_BARO     0.0000000000000000E+00
         AVEPOT    -9.8286566265138675E-01
         AVEKIN     1.0621231866005720E-01
         AVETEMP     1.1179719175944943E+04
         AVEKIN_QM     0.0000000000000000E+00
         AVETEMP_QM     0.0000000000000000E+00
         AVEVOL     8.4354182288624872E+02
         AVECELL_A     9.4486306644282276E+00
         AVECELL_B     9.4486306644282276E+00
         AVECELL_C     9.4486306644282259E+00
         AVEALPHA     8.9999999999999943E+01
         AVEBETA     8.9999999999999943E+01
         AVEGAMMA     8.9999999999999943E+01
         AVE_ECONS     1.1818986581420635E+04
         AVE_PRESS     0.0000000000000000E+00
         AVE_PXX     0.0000000000000000E+00
       &END RESTART_AVERAGES
     &END AVERAGES
   &END MD
 &END MOTION
 &FORCE_EVAL
   METHOD  QS
   &DFT
     BASIS_SET_FILE_NAME BASIS_SET
     POTENTIAL_FILE_NAME GTH_POTENTIALS
     &SCF
       MAX_SCF  300
       EPS_SCF     9.9999999999999995E-08
       SCF_GUESS  ATOMIC
       &DIAGONALIZATION  T
         ALGORITHM  STANDARD
       &END DIAGONALIZATION
       &MIXING  T
         METHOD  BROYDEN_MIXING
         ALPHA     4.0000000000000002E-01
         NBUFFER  8
       &END MIXING
     &END SCF
     &QS
       EPS_DEFAULT     1.0000000000000000E-10
     &END QS
     &MGRID
       CUTOFF     1.0000000000000000E+02
       REL_CUTOFF     3.0000000000000000E+01
     &END MGRID
     &XC
       DENSITY_CUTOFF     1.0000000000000000E-10
       GRADIENT_CUTOFF     1.0000000000000000E-10
       TAU_CUTOFF     1.0000000000000000E-10
       &XC_FUNCTIONAL  NO_SHORTCUT
         &PADE  T
         &END PADE
       &END XC_FUNCTIONAL
     &END XC
   &END DFT
   &MM
     &FORCEFIELD
       &NONBONDED
         &LENNARD-JONES
           ATOMS H H
           EPSILON     3.1800000000000002E+00
           SIGMA     2.9279999999999999E+00
           RCUT     7.4000000000000004E+00
         &END LENNARD-JONES
       &END NONBONDED
       &CHARGE
         ATOM H
         CHARGE     1.0000000000000000E+00
       &END CHARGE
     &END FORCEFIELD
     &POISSON
       &EWALD
         EWALD_TYPE  NONE
       &END EWALD
     &END POISSON
   &END MM
   &SUBSYS
     &CELL
       A     5.0000000000000009E+00    0.0000000000000000E+00    0.0000000000000000E+00
       B     0.0000000000000000E+00    5.0000000000000009E+00    0.0000000000000000E+00
       C     0.0000000000000000E+00    0.0000000000000000E+00    5.0000000000000009E+00
       PERIODIC  XYZ
       MULTIPLE_UNIT_CELL  1 1 1
     &END CELL
     &COORD
H    2.0045253147199693E+00   -2.8837357200243252E+00    7.9637092191837571E+00
H    1.7482105282835656E+00    1.8964459108587046E+00    3.2705746023001629E+00
     &END COORD
     &VELOCITY
           4.5407577873819906E-03    1.0013281583602332E-03    3.3262488270070068E-04
           4.4010148845121319E-03   -4.4151759233997147E-03    5.9711096716909412E-03
     &END VELOCITY
     &KIND H
       BASIS_SET DZVP-GTH-PADE
       POTENTIAL GTH-PADE-q1
       &POTENTIAL
 1
  0.2000000000000000E+00 2 -0.4180236800000000E+01  0.7250748200000000E+00
 0
         # Potential name:  GTH-PADE-Q1  for symbol:  H
         # Potential read from the potential filename: GTH_POTENTIALS
       &END POTENTIAL
     &END KIND
     &TOPOLOGY
       NUMBER_OF_ATOMS  2
       MULTIPLE_UNIT_CELL  1 1 1
     &END TOPOLOGY
   &END SUBSYS
 &END FORCE_EVAL
