 # Version information for this restart file 
 # current date 2022-05-22 21:13:33.740
 # current working dir /home/nick/Documents/gitlab/pymatgen/cp2k_simulations/h2/output
 # Program compiled at                              Sun Mar 22 16:45:27 UTC 2020
 # Program compiled on                                           lcy01-amd64-017
 # Program compiled for                                    Linux-x86_64-gfortran
 # Source code revision number                                         svn:18464
 &GLOBAL
   PROJECT_NAME h2
   RUN_TYPE  MD
 &END GLOBAL
 &MOTION
   &MD
     ENSEMBLE  NVT
     STEPS  100
     TIMESTEP     9.9999999999999989E-01
     STEP_START_VAL  60
     TIME_START_VAL     6.0000000000000036E+01
     ECONS_START_VAL    -8.9708950926403763E-01
     TEMPERATURE     1.0000000000000001E+02
     &THERMOSTAT
       REGION  MASSIVE
       &NOSE
         TIMECON     9.9999999999999989E+02
         &COORD
               6.2720555622628002E-02   -3.0823906845436996E-02   -8.8142493950592888E-03    5.3721192446266253E-01 \
               1.0408555338249276E-01   -1.2425122853072007E-02    3.9119945829474728E-01    2.5832260350258703E-02   -3.2768854362670956E-02 \
               1.1536157653552946E-01   -4.4936667116399091E-02    2.5061434792731159E-02    6.6189226962484832E-02   -2.3425267220555147E-02 \
               9.5331814791677020E-03    4.6540410043778464E-02   -2.2925131834080525E-02    4.6215835351473514E-02
         &END COORD
         &VELOCITY
               2.8568953854483166E-05   -1.2336040954777098E-05   -4.0877610084553828E-06    3.5322501978858086E-04 \
               1.4655251460751235E-04    2.7405564212835776E-06    3.6540076899398193E-04    8.8034167705720097E-05   -1.2190300166355056E-05 \
               2.3296649774636879E-04   -1.1966065105357940E-05    9.7628066755895626E-06    2.7814120834450459E-05   -9.2170205145880565E-06 \
               3.2266594652366320E-06    2.4517576408480593E-05   -9.1924501477308795E-06    1.8012442932395720E-05
         &END VELOCITY
         &MASS
               5.4124330775235652E+05    5.4124330775235652E+05    5.4124330775235652E+05    5.4124330775235652E+05 \
               5.4124330775235652E+05    5.4124330775235652E+05    5.4124330775235652E+05    5.4124330775235652E+05    5.4124330775235652E+05 \
               5.4124330775235652E+05    5.4124330775235652E+05    5.4124330775235652E+05    5.4124330775235652E+05    5.4124330775235652E+05 \
               5.4124330775235652E+05    5.4124330775235652E+05    5.4124330775235652E+05    5.4124330775235652E+05
         &END MASS
         &FORCE
               1.2961994649516754E-09    2.3108498583853787E-10   -4.3292223206311283E-10    4.1614270353330541E-08 \
               1.2418281446614230E-07    2.0892539399284071E-08    3.3996570020718226E-08    1.3293262184289230E-07    7.1649145451378001E-09 \
               7.5930696501639235E-07    5.3688288933707800E-08   -4.4191342439538570E-10    1.8734000783171094E-09    1.8852517929236051E-10 \
              -5.0014667133471354E-10    2.8908373047939135E-09    1.6011414444633506E-11   -5.0059899878253324E-10
         &END FORCE
       &END NOSE
     &END THERMOSTAT
     &AVERAGES  T
       &RESTART_AVERAGES
         ITIMES_START  1
         AVECPU     6.9385237666695784E-02
         AVEHUGONIOT     0.0000000000000000E+00
         AVETEMP_BARO     0.0000000000000000E+00
         AVEPOT    -9.6287029399723545E-01
         AVEKIN     1.1064634526270713E-01
         AVETEMP     1.1646436905692968E+04
         AVEKIN_QM     0.0000000000000000E+00
         AVETEMP_QM     0.0000000000000000E+00
         AVEVOL     8.4354182288624884E+02
         AVECELL_A     9.4486306644282152E+00
         AVECELL_B     9.4486306644282152E+00
         AVECELL_C     9.4486306644282116E+00
         AVEALPHA     8.9999999999999929E+01
         AVEBETA     8.9999999999999929E+01
         AVEGAMMA     8.9999999999999929E+01
         AVE_ECONS     1.2025549661831725E+04
         AVE_PRESS     0.0000000000000000E+00
         AVE_PXX     0.0000000000000000E+00
       &END RESTART_AVERAGES
     &END AVERAGES
   &END MD
 &END MOTION
 &FORCE_EVAL
   METHOD  QS
   &DFT
     BASIS_SET_FILE_NAME BASIS_SET
     POTENTIAL_FILE_NAME GTH_POTENTIALS
     &SCF
       MAX_SCF  300
       EPS_SCF     9.9999999999999995E-08
       SCF_GUESS  ATOMIC
       &DIAGONALIZATION  T
         ALGORITHM  STANDARD
       &END DIAGONALIZATION
       &MIXING  T
         METHOD  BROYDEN_MIXING
         ALPHA     4.0000000000000002E-01
         NBUFFER  8
       &END MIXING
     &END SCF
     &QS
       EPS_DEFAULT     1.0000000000000000E-10
     &END QS
     &MGRID
       CUTOFF     1.0000000000000000E+02
       REL_CUTOFF     3.0000000000000000E+01
     &END MGRID
     &XC
       DENSITY_CUTOFF     1.0000000000000000E-10
       GRADIENT_CUTOFF     1.0000000000000000E-10
       TAU_CUTOFF     1.0000000000000000E-10
       &XC_FUNCTIONAL  NO_SHORTCUT
         &PADE  T
         &END PADE
       &END XC_FUNCTIONAL
     &END XC
   &END DFT
   &MM
     &FORCEFIELD
       &NONBONDED
         &LENNARD-JONES
           ATOMS H H
           EPSILON     3.1800000000000002E+00
           SIGMA     2.9279999999999999E+00
           RCUT     7.4000000000000004E+00
         &END LENNARD-JONES
       &END NONBONDED
       &CHARGE
         ATOM H
         CHARGE     1.0000000000000000E+00
       &END CHARGE
     &END FORCEFIELD
     &POISSON
       &EWALD
         EWALD_TYPE  NONE
       &END EWALD
     &END POISSON
   &END MM
   &SUBSYS
     &CELL
       A     5.0000000000000009E+00    0.0000000000000000E+00    0.0000000000000000E+00
       B     0.0000000000000000E+00    5.0000000000000009E+00    0.0000000000000000E+00
       C     0.0000000000000000E+00    0.0000000000000000E+00    5.0000000000000009E+00
       PERIODIC  XYZ
       MULTIPLE_UNIT_CELL  1 1 1
     &END CELL
     &COORD
H    1.9326396072526504E+00   -3.5462714309089405E+00    9.0946054078573955E+00
H    1.4069761112204417E+00    1.9403610674820388E+00    3.2399243381948093E+00
     &END COORD
     &VELOCITY
           7.4443684661418990E-04   -3.5257528452457528E-03   -3.1916985103904410E-03
          -1.4961489551992807E-02   -8.5100870848213981E-04    1.0118936131442114E-03
     &END VELOCITY
     &KIND H
       BASIS_SET DZVP-GTH-PADE
       POTENTIAL GTH-PADE-q1
       &POTENTIAL
 1
  0.2000000000000000E+00 2 -0.4180236800000000E+01  0.7250748200000000E+00
 0
         # Potential name:  GTH-PADE-Q1  for symbol:  H
         # Potential read from the potential filename: GTH_POTENTIALS
       &END POTENTIAL
     &END KIND
     &TOPOLOGY
       NUMBER_OF_ATOMS  2
       MULTIPLE_UNIT_CELL  1 1 1
     &END TOPOLOGY
   &END SUBSYS
 &END FORCE_EVAL
