 # Version information for this restart file 
 # current date 2022-05-22 21:13:32.510
 # current working dir /home/nick/Documents/gitlab/pymatgen/cp2k_simulations/h2/output
 # Program compiled at                              Sun Mar 22 16:45:27 UTC 2020
 # Program compiled on                                           lcy01-amd64-017
 # Program compiled for                                    Linux-x86_64-gfortran
 # Source code revision number                                         svn:18464
 &GLOBAL
   PROJECT_NAME h2
   RUN_TYPE  MD
 &END GLOBAL
 &MOTION
   &MD
     ENSEMBLE  NVT
     STEPS  100
     TIMESTEP     9.9999999999999989E-01
     STEP_START_VAL  40
     TIME_START_VAL     4.0000000000000021E+01
     ECONS_START_VAL    -8.9708950926403763E-01
     TEMPERATURE     1.0000000000000001E+02
     &THERMOSTAT
       REGION  MASSIVE
       &NOSE
         TIMECON     9.9999999999999989E+02
         &COORD
               3.9748100722283894E-02   -2.0571612971128458E-02   -5.5819853510377026E-03    2.7330323412591256E-01 \
               2.0115634645006302E-02   -1.0192745737875113E-02    1.4113814342669503E-01   -8.7723500155797978E-03   -2.1715488306960608E-02 \
               5.5277809641479034E-02   -3.0925166294386748E-02    1.6881467380424640E-02    4.3452463709998924E-02   -1.5733005312223186E-02 \
               6.6946984493066472E-03    2.7409516388545205E-02   -1.5275219315961727E-02    3.1151807756398888E-02
         &END COORD
         &VELOCITY
               2.6602062642873013E-05   -1.2450658556208331E-05   -3.7311089767082361E-06    2.9515852557946424E-04 \
               6.2306593093803192E-05   -5.7824619270286752E-06    2.1703640070524957E-04    1.0271724733068140E-05   -1.3581313641273156E-05 \
               3.9566159314737381E-05   -1.7988958645476628E-05    1.0007854450400954E-05    2.7080345397434573E-05   -9.3849249436425178E-06 \
               3.6388705998041682E-06    2.1449868937358371E-05   -9.2914703304777127E-06    1.8425441122525115E-05
         &END VELOCITY
         &MASS
               5.4124330775235652E+05    5.4124330775235652E+05    5.4124330775235652E+05    5.4124330775235652E+05 \
               5.4124330775235652E+05    5.4124330775235652E+05    5.4124330775235652E+05    5.4124330775235652E+05    5.4124330775235652E+05 \
               5.4124330775235652E+05    5.4124330775235652E+05    5.4124330775235652E+05    5.4124330775235652E+05    5.4124330775235652E+05 \
               5.4124330775235652E+05    5.4124330775235652E+05    5.4124330775235652E+05    5.4124330775235652E+05
         &END MASS
         &FORCE
               6.8023823048500020E-09    1.2256959835428925E-10   -4.3008124001776693E-10    5.1794796799211852E-08 \
               8.6533455083742198E-08    3.2970114044557130E-09    9.8024040119313396E-08    4.6519699092588605E-08   -4.7959180950912693E-10 \
               1.2812838734543061E-08    9.8038082441812904E-10   -2.6149750535238233E-10   -5.7200979058373522E-10    1.4824496834330515E-10 \
              -4.9702332230324710E-10    6.7160875931312057E-09   -1.2500326107119908E-10   -4.9876871759890304E-10
         &END FORCE
       &END NOSE
     &END THERMOSTAT
     &AVERAGES  T
       &RESTART_AVERAGES
         ITIMES_START  1
         AVECPU     7.3340683975038706E-02
         AVEHUGONIOT     0.0000000000000000E+00
         AVETEMP_BARO     0.0000000000000000E+00
         AVEPOT    -9.3767023492405333E-01
         AVEKIN     9.0831644839422881E-02
         AVETEMP     9.5607768892046734E+03
         AVEKIN_QM     0.0000000000000000E+00
         AVETEMP_QM     0.0000000000000000E+00
         AVEVOL     8.4354182288624986E+02
         AVECELL_A     9.4486306644282116E+00
         AVECELL_B     9.4486306644282116E+00
         AVECELL_C     9.4486306644282081E+00
         AVEALPHA     9.0000000000000000E+01
         AVEBETA     9.0000000000000000E+01
         AVEGAMMA     9.0000000000000000E+01
         AVE_ECONS     1.0504280021468561E+04
         AVE_PRESS     0.0000000000000000E+00
         AVE_PXX     0.0000000000000000E+00
       &END RESTART_AVERAGES
     &END AVERAGES
   &END MD
 &END MOTION
 &FORCE_EVAL
   METHOD  QS
   &DFT
     BASIS_SET_FILE_NAME BASIS_SET
     POTENTIAL_FILE_NAME GTH_POTENTIALS
     &SCF
       MAX_SCF  300
       EPS_SCF     9.9999999999999995E-08
       SCF_GUESS  ATOMIC
       &DIAGONALIZATION  T
         ALGORITHM  STANDARD
       &END DIAGONALIZATION
       &MIXING  T
         METHOD  BROYDEN_MIXING
         ALPHA     4.0000000000000002E-01
         NBUFFER  8
       &END MIXING
     &END SCF
     &QS
       EPS_DEFAULT     1.0000000000000000E-10
     &END QS
     &MGRID
       CUTOFF     1.0000000000000000E+02
       REL_CUTOFF     3.0000000000000000E+01
     &END MGRID
     &XC
       DENSITY_CUTOFF     1.0000000000000000E-10
       GRADIENT_CUTOFF     1.0000000000000000E-10
       TAU_CUTOFF     1.0000000000000000E-10
       &XC_FUNCTIONAL  NO_SHORTCUT
         &PADE  T
         &END PADE
       &END XC_FUNCTIONAL
     &END XC
   &END DFT
   &MM
     &FORCEFIELD
       &NONBONDED
         &LENNARD-JONES
           ATOMS H H
           EPSILON     3.1800000000000002E+00
           SIGMA     2.9279999999999999E+00
           RCUT     7.4000000000000004E+00
         &END LENNARD-JONES
       &END NONBONDED
       &CHARGE
         ATOM H
         CHARGE     1.0000000000000000E+00
       &END CHARGE
     &END FORCEFIELD
     &POISSON
       &EWALD
         EWALD_TYPE  NONE
       &END EWALD
     &END POISSON
   &END MM
   &SUBSYS
     &CELL
       A     5.0000000000000009E+00    0.0000000000000000E+00    0.0000000000000000E+00
       B     0.0000000000000000E+00    5.0000000000000009E+00    0.0000000000000000E+00
       C     0.0000000000000000E+00    0.0000000000000000E+00    5.0000000000000009E+00
       PERIODIC  XYZ
       MULTIPLE_UNIT_CELL  1 1 1
     &END CELL
     &COORD
H    1.9819511873330047E+00   -1.2139883119340584E+00    6.1313059957683160E+00
H    3.9442275084176290E+00    1.9754968288572212E+00    3.1980929498604955E+00
     &END COORD
     &VELOCITY
           1.4751871127379622E-03   -3.9280879096027701E-03    5.3896115495256445E-03
          -1.9866340501867282E-03    6.2097551104340858E-05   -1.4665458204061728E-03
     &END VELOCITY
     &KIND H
       BASIS_SET DZVP-GTH-PADE
       POTENTIAL GTH-PADE-q1
       &POTENTIAL
 1
  0.2000000000000000E+00 2 -0.4180236800000000E+01  0.7250748200000000E+00
 0
         # Potential name:  GTH-PADE-Q1  for symbol:  H
         # Potential read from the potential filename: GTH_POTENTIALS
       &END POTENTIAL
     &END KIND
     &TOPOLOGY
       NUMBER_OF_ATOMS  2
       MULTIPLE_UNIT_CELL  1 1 1
     &END TOPOLOGY
   &END SUBSYS
 &END FORCE_EVAL
